
units real
dimension 3
boundary p p p
neighbor 0.3 bin
neigh_modify every 1 check yes

atom_style full
bond_style harmonic
angle_style cosine/squared
special_bonds lj/coul 0 1 1

pair_style lj/gromacs 9 12

read_data end-cont2.data
Reading data file ...
  orthogonal box = (-3.3435324 -3.3435324 -3.3435324) to (98.343532 98.343532 98.343532)
  2 by 2 by 2 MPI processor grid
WARNING: Pair style lj/cut/coul/long in data file differs from currently defined pair style lj/gromacs (src/read_data.cpp:786)
  reading atoms ...
  8889 atoms
  reading velocities ...
  8889 velocities
  scanning bonds ...
  1 = max bonds/atom
  scanning angles ...
  1 = max angles/atom
  orthogonal box = (-3.3435324 -3.3435324 -3.3435324) to (98.343532 98.343532 98.343532)
  2 by 2 by 2 MPI processor grid
  reading bonds ...
  3000 bonds
  reading angles ...
  2000 angles
Finding 1-2 1-3 1-4 neighbors ...
  special bond factors lj:    0        1        1       
  special bond factors coul:  0        1        1       
     2 = max # of 1-2 neighbors
     2 = max # of special neighbors
  special bonds CPU = 0.001 seconds
  read_data CPU = 0.080 seconds

pair_style hybrid/overlay lj/gromacs 9 12 coul/long 12

kspace_style pppm 1.0e-5
kspace_modify order 4

dielectric 80

set type 1 charge  -1
Setting atom values ...
  1000 settings made for charge
set type 3 charge  1
Setting atom values ...
  1000 settings made for charge
pair_coeff 1*3 1*3 coul/long

## In kJ/mol and Angstrom
# pair_coeff 1 1   5.0 4.7
# pair_coeff 1 2   2.0 6.2
# pair_coeff 1 3   5.6 4.7
# pair_coeff 1 4   5.6 4.7
# pair_coeff 2 2   3.5 4.7
# pair_coeff 2 3   2.0 6.2
# pair_coeff 2 4   2.0 4.7
# pair_coeff 3 3   5.0 4.7
# pair_coeff 3 4   5.6 4.7
# pair_coeff 4 4   5.0 4.7
# bond_coeff 1 1250 4.7
# angle_coeff 1 25 180

# In kcal/mol and Angstrom
pair_coeff 1 1 lj/gromacs  1.19 4.7
pair_coeff 1 2 lj/gromacs  0.48 6.2
pair_coeff 1 3 lj/gromacs  1.33 4.7
pair_coeff 1 4 lj/gromacs  1.33 4.7
pair_coeff 2 2 lj/gromacs  0.84 4.7
pair_coeff 2 3 lj/gromacs  0.48 6.2
pair_coeff 2 4 lj/gromacs  0.48 4.7
pair_coeff 3 3 lj/gromacs  1.19 4.7
pair_coeff 3 4 lj/gromacs  1.33 4.7
pair_coeff 4 4 lj/gromacs  1.19 4.7

bond_coeff 1 2.98 4.7
angle_coeff 1 5.97 180


dump        mydump  all atom 10000 sds-continue3.lammpstrj

thermo              100
timestep 20

fix mom all momentum 1000 linear 1 1 1

#fix fxnpt1 all npt temp 300 250 $(100*dt) iso 1 1 $(1000*dt) mtk yes
#run 100000
#unfix fxnpt1

#fix fxnpt2 all npt temp 250 250 $(100*dt) iso 1 1 $(1000*dt) mtk yes
#run 4000000
#unfix fxnpt2

# fix fxnpt2 all npt temp 450 300 $(100*dt) iso 1 1 $(1000*dt) mtk yes
# run 2000000
# unfix fxnpt2

fix fxnptrun all npt temp 300 300 $(100*dt) iso 1 1 $(1000*dt) mtk yes
fix fxnptrun all npt temp 300 300 2000 iso 1 1 $(1000*dt) mtk yes
fix fxnptrun all npt temp 300 300 2000 iso 1 1 20000 mtk yes
run 500000
PPPM initialization ...
  using 12-bit tables for long-range coulomb (src/kspace.cpp:342)
  G vector (1/distance) = 0.14203324
  grid = 16 16 16
  stencil order = 4
  estimated absolute RMS force accuracy = 0.0038440705
  estimated relative force accuracy = 1.1576304e-05
  using double precision KISS FFT
  3d grid and FFT values/proc = 2197 512
Generated 0 of 6 mixed pair_coeff terms from geometric mixing rule
Neighbor list info ...
  update: every = 1 steps, delay = 0 steps, check = yes
  max neighbors/atom: 2000, page size: 100000
  master list distance cutoff = 12.3
  ghost atom cutoff = 12.3
  binsize = 6.15, bins = 17 17 17
  2 neighbor lists, perpetual/occasional/extra = 2 0 0
  (1) pair lj/gromacs, perpetual
      attributes: half, newton on
      pair build: half/bin/newton
      stencil: half/bin/3d
      bin: standard
  (2) pair coul/long, perpetual, skip from (1)
      attributes: half, newton on
      pair build: skip
      stencil: none
      bin: none
Per MPI rank memory allocation (min/avg/max) = 7.734 | 7.759 | 7.771 Mbytes
   Step          Temp          E_pair         E_mol          TotEng         Press          Volume    
         0   293.47102     -48664.111      1579.461      -39309.594      152.56803      1051470.6    
       100   290.79855     -48408.914      1523.1099     -39181.55       131.18189      1057400.6    
       200   289.43308     -48162.724      1498.2664     -38996.38      -68.892976      1068106.5    
       300   293.94284     -48017.098      1497.2343     -38732.306     -80.611931      1070776.6    
       400   298.63149     -47943.761      1539.0445     -38492.94       34.42033       1067828.2    
       500   304.79046     -48043.146      1598.7336     -38369.464      37.692135      1067118.2    
       600   295.30137     -47720.823      1555.9171     -38341.357      32.364335      1071062.5    
       700   299.21595     -47789.291      1585.4416     -38276.59      -75.973466      1074852      
       800   300.25912     -47718.431      1599.8702     -38163.663     -15.816542      1074682.3    
       900   302.98281     -47737.312      1612.1481     -38098.107      0.73631817     1073295.8    
      1000   302.71496     -47767.015      1547.3768     -38199.677      8.4247628      1072362.4    
      1100   295.07309     -47740.342      1602.7159     -38320.125      30.052512      1072206.2    
      1200   300.63573     -47792.915      1547.0025     -38281.038      6.1911156      1072900.2    
      1300   301.08753     -47654.975      1509.4399     -38168.691      33.365343      1074371      
      1400   299.18783     -47519.128      1488.7279     -38103.885     -15.030859      1076951.2    
      1500   300.96631     -47580.779      1572.9213     -38034.225     -35.358623      1077501.1    
      1600   302.38663     -47602.8        1580.0683     -38011.47      -22.169922      1076366.4    
      1700   301.00675     -47611.202      1561.7641     -38074.734      28.054089      1074830.4    
      1800   297.31241     -47716.962      1558.1049     -38282.029     -31.088161      1074536.4    
      1900   298.6965      -47748.117      1532.7404     -38301.879      0.68674188     1072236.3    
      2000   298.49826     -47709.909      1567.7833     -38233.88       44.776701      1070558.9    
      2100   302.52764     -47762.036      1590.2424     -38156.796      54.494247      1071738.6    
      2200   301.42462     -47565.646      1517.9201     -38061.951      18.583422      1076492.3    
      2300   302.37978     -47473.932      1549.5216     -37913.33      -45.200896      1080480.1    
      2400   300.79425     -47366.309      1534.0861     -37863.149     -19.245332      1080640.5    
      2500   300.49109     -47462.856      1543.1381     -37958.676     -9.3133586      1077446.4    
      2600   303.23914     -47699.47       1516.8257     -38148.796      16.039448      1073289.1    
      2700   299.27066     -47719.409      1565.0534     -38225.646      38.938835      1071550.2    
      2800   297.96108     -47769.803      1556.2987     -38319.49       2.9930921      1072405.5    
      2900   299.08359     -47830.552      1528.1166     -38378.683     -7.800957       1073476      
      3000   299.13394     -47741.481      1525.3997     -38290.994      7.096993       1072993.7    
      3100   301.08161     -47713.925      1603.0442     -38134.193      60.418418      1072733.4    
      3200   297.3331      -47596.936      1583.099      -38136.46       3.7057159      1076293.4    
      3300   298.08546     -47527.191      1543.1766     -38086.705     -39.399683      1078950.2    
      3400   301.37631     -47544.247      1556.647      -38003.105     -32.591587      1078511.2    
      3500   305.31314     -47656.231      1582.8058     -37984.63      -65.306917      1077155.7    
      3600   302.45084     -47589.019      1544.7969     -38031.259      31.970294      1074827.6    
      3700   302.21907     -47660.259      1513.1463     -38140.29      -13.375539      1074703.2    
      3800   299.41403     -47647.633      1538.7334     -38176.392     -14.802585      1075801.2    
      3900   296.28117     -47533.358      1531.1135     -38152.737     -11.333141      1076320.3    
      4000   301.8685      -47544.682      1540.4348     -38006.713      30.961556      1075916.9    
      4100   303.49344     -47556.861      1555.712      -37960.563      19.703228      1076654      
      4200   298.68709     -47492.606      1560.5432     -38018.814      42.110209      1077406.9    
      4300   300.16487     -47560.019      1580.6381     -38026.981     -36.952992      1077739.5    
      4400   301.76585     -47507.498      1557.3567     -37955.325      23.084553      1076960.5    
      4500   303.52022     -47538.248      1613.1814     -37883.772     -2.6604652      1077259.8    
      4600   300.9257      -47474.178      1602.244      -37899.377     -23.671345      1078818.3    
      4700   299.59983     -47497.986      1552.2787     -38008.277     -28.195525      1079397.9    
      4800   299.29353     -47568.118      1533.4669     -38105.336      5.3392548      1077296.4    
      4900   302.25214     -47743.966      1505.0592     -38231.208      10.087427      1074830.1    
      5000   297.63131     -47664.113      1496.6467     -38282.189      38.228729      1073045      
      5100   298.83015     -47713.27       1518.2641     -38277.967      20.972219      1072006.2    
      5200   299.84017     -47798.144      1577.7563     -38276.59       24.998674      1071624.1    
      5300   299.03855     -47758.538      1539.2377     -38296.741     -2.5460204      1072299.2    
      5400   299.27305     -47671.608      1489.6021     -38253.233      23.457817      1073568.6    
      5500   302.45558     -47678.542      1580.4016     -38085.052      8.5199612      1075022.9    
      5600   301.91967     -47604.887      1559.1894     -38046.807     -22.39465       1076706.4    
      5700   300.44193     -47575.232      1562.4296     -38053.062     -32.067443      1076813      
      5800   301.24774     -47599.174      1591.8381     -38026.247      17.532792      1075137.8    
      5900   302.71282     -47613.88       1579.1725     -38014.804     -1.9640455      1074580.4    
      6000   298.2501      -47641.529      1603.5355     -38136.323     -29.166221      1076002.4    
      6100   299.05967     -47707.56       1556.0889     -38228.351     -15.076358      1075475.1    
      6200   298.34194     -47717.221      1547.2494     -38265.867      16.779327      1073405.7    
      6300   303.59654     -47776.307      1537.8883     -38195.102      26.811589      1071860.1    
      6400   307.55704     -47715.513      1522.9366     -38044.332      3.4001515      1074101.5    
      6500   297.48243     -47523.135      1624.0035     -38017.798     -74.228981      1079816.8    
      6600   298.72066     -47326.998      1534.1578     -37878.703     -7.3392176      1082248.5    
      6700   305.46333     -47432.707      1562.6717     -37777.26      -10.918789      1080288.8    
      6800   305.38025     -47531.089      1578.8592     -37861.657      12.736129      1076588.9    
      6900   300.34874     -47538.766      1587.7874     -37993.707      19.392277      1074744.3    
      7000   296.49648     -47558.766      1608.3501     -38095.204      34.012044      1075096.6    
      7100   300.22119     -47648.098      1553.1299     -38141.076     -37.923835      1076853.8    
      7200   296.38965     -47594.684      1571.9476     -38170.355     -19.278604      1076904.7    
      7300   301.71359     -47617.243      1580.291      -38043.521      6.6569242      1076312.2    
      7400   302.24047     -47509.902      1542.835      -37959.677      51.003984      1076226.1    
      7500   300.63792     -47542.309      1538.9369     -38038.439     -17.522635      1078077.5    
      7600   297.36698     -47570.662      1584.483      -38107.905     -47.274587      1078724.6    
      7700   298.26715     -47657.966      1583.2037     -38172.64       21.912438      1075719.3    
      7800   299.57416     -47806.808      1611.1958     -38258.862      14.541305      1073118.6    
      7900   297.15075     -47710.266      1542.0098     -38295.711      34.356572      1072358.2    
      8000   298.60437     -47721.422      1605.7863     -38204.578     -0.27976456     1073106.2    
      8100   303.61375     -47653.197      1540.1725     -38069.252      26.745842      1075021.1    
      8200   299.73026     -47566.349      1576.7174     -38048.746     -52.223731      1078484      
      8300   299.88842     -47479.68       1536.3903     -37998.214     -31.987583      1079577.8    
      8400   302.90583     -47517.637      1566.7783     -37925.841      5.2095442      1077587.7    
      8500   304.04988     -47382.82       1567.8376     -37759.655      39.621707      1077234.1    
      8600   303.93861     -47385.586      1567.3667     -37765.84      -20.730164      1080026.7    
      8700   301.22423     -47463.588      1556.8328     -37926.289     -52.215816      1081199.2    
      8800   302.00916     -47573.193      1566.434      -38005.498     -41.813052      1078816      
      8900   298.77726     -47588.862      1593.8806     -38079.344      31.257731      1074757.8    
      9000   299.31059     -47657.762      1551.0225     -38176.972      50.955955      1073881      
      9100   297.91521     -47678.77       1531.5136     -38254.458     -15.364914      1075914.6    
      9200   300.21057     -47624.153      1557.4638     -38113.078     -11.433872      1076431.8    
      9300   299.73257     -47435.482      1531.3761     -37963.159      57.97584       1076071.8    
      9400   300.7901      -47499.601      1554.8271     -37975.809     -2.8119965      1078384.8    
      9500   298.36179     -47469.549      1564.633      -38000.286     -49.145918      1079434.3    
      9600   301.86224     -47534.61       1597.2223     -37940.018     -6.8617228      1076924.9    
      9700   301.14417     -47482.586      1632.0757     -37872.165      47.349675      1074079.2    
      9800   303.1496      -47546.344      1553.1734     -37961.694      32.583709      1074967.6    
      9900   293.88939     -47440.598      1551.6422     -38102.815     -11.111041      1077877      
     10000   300.23061     -47604.553      1606.0514     -38044.361     -37.814045      1076338.4    
     10100   306.66677     -47643.537      1549.586      -37969.294      61.666216      1071719      
     10200   304.45466     -47705.271      1535.1384     -38104.082      57.013523      1069961.3    
     10300   298.52301     -47743.531      1632.7763     -38201.853     -21.779898      1072754.3    
     10400   295.64111     -47575.356      1594.4524     -38148.354     -20.155755      1075899.9    
     10500   299.62368     -47487.753      1541.6029     -38008.088      5.0967141      1075943.5    
     10600   304.07695     -47614.253      1577.6808     -37980.528     -9.0946969      1074594.9    
     10700   302.24227     -47642.716      1545.4459     -38089.833      6.7388495      1073473.6    
     10800   300.38131     -47706.743      1582.7797     -38165.829     -22.462695      1073028.6    
     10900   298.83496     -47708.328      1616.139      -38175.023     -10.276099      1072460.4    
     11000   299.17365     -47744.793      1619.057      -38199.597      3.7665924      1071551.2    
     11100   299.04599     -47836.286      1622.444      -38291.085     -25.146799      1070851.1    
     11200   298.93705     -47848.737      1528.165      -38400.701      29.449706      1070133.8    
     11300   294.03836     -47843.29       1494.872      -38558.331     -9.0147488      1070530.3    
     11400   294.31495     -47880.311      1536.1599     -38546.736      40.454556      1070013.5    
     11500   298.75924     -47907.248      1623.1505     -38368.938     -17.143969      1069013.8    
     11600   299.65606     -47843.228      1572.087      -38332.221      46.211146      1068840.8    
     11700   299.68283     -47808.89       1549.01       -38320.251     -0.80234434     1071513.1    
     11800   299.4749      -47763.94       1579.4333     -38250.386     -47.725979      1073084.8    
     11900   300.36918     -47658.748      1589.0901     -38111.845      33.657002      1072703.6    
     12000   301.50476     -47678.686      1597.7835     -38093.004     -15.110086      1073922.7    
     12100   298.82805     -47740.314      1569.9131     -38253.418     -48.390344      1075117.7    
     12200   299.89547     -47871.489      1571.5038     -38354.722     -38.710597      1072988.3    
     12300   302.39894     -47882.15       1552.0484     -38318.514      24.734821      1070038.5    
     12400   299.78573     -47845.023      1618.8386     -38283.829      14.953442      1069986.7    
     12500   301.52549     -47765.91       1530.8436     -38246.619      49.059882      1072442.2    
     12600   299.00515     -47614.644      1591.8389     -38101.13      -47.901101      1077048.7    
     12700   298.28664     -47449.535      1571.2763     -37975.62      -14.044852      1078739.4    
     12800   302.09906     -47495.125      1526.1115     -37965.371     -56.674071      1077570.7    
     12900   303.10046     -47657.399      1547.9241     -38079.301      1.746992       1074070      
     13000   297.06094     -47691.028      1604.8777     -38215.984      23.967538      1071629.3    
     13100   298.67887     -47750.627      1607.9448     -38229.651      26.904877      1071933      
     13200   299.30878     -47728.839      1559.8826     -38239.237     -8.8168466      1073528.3    
     13300   297.31714     -47600.643      1588.4776     -38135.212     -4.9383927      1074428.7    
     13400   301.91906     -47617.301      1608.1639     -38010.263      1.6347935      1075345.8    
     13500   301.55779     -47569.998      1560.6751     -38020.02      -23.095387      1076473.1    
     13600   298.03308     -47486.411      1547.5492     -38042.94       16.080782      1076470.9    
     13700   300.08576     -47551.572      1522.5542     -38078.713      27.214386      1075534.2    
     13800   298.90871     -47681.304      1542.7518     -38219.432     -22.097687      1074887.2    
     13900   300.18213     -47812.141      1531.0448     -38328.239     -5.8652459      1073063.8    
     14000   298.26638     -47753.99       1573.5095     -38278.378      45.121636      1071493.7    
     14100   302.93854     -47756.832      1576.0254     -38154.923      5.7028825      1071997.1    
     14200   304.45531     -47653.971      1535.3427     -38052.56      -21.819833      1074791      
     14300   303.53604     -47476.408      1576.3561     -37858.338     -10.240448      1076620.2    
     14400   305.82687     -47451.935      1519.8062     -37829.723     -30.680454      1078278.7    
     14500   300.2922      -47497.053      1599.3146     -37941.965     -56.08498       1079029.2    
     14600   300.74687     -47509.44       1539.676      -38001.945      4.2899802      1076349.9    
     14700   303.30952     -47680.487      1561.0976     -38083.677      10.530258      1073461.5    
     14800   302.07577     -47735.92       1539.1481     -38193.746     -1.5884102      1073524.8    
     14900   299.23395     -47663.643      1524.4285     -38211.478     -2.798422       1074558.7    
     15000   302.01974     -47771.331      1585.3236     -38184.466      6.4354103      1073191      
     15100   303.09487     -47745.923      1523.7859     -38192.111      14.132183      1071970.5    
     15200   293.63502     -47711.041      1559.9565     -38371.683      17.167009      1072959.2    
     15300   295.51692     -47751.24       1563.7096     -38358.271     -3.0227358      1073881.7    
     15400   298.70841     -47701.698      1579.9571     -38207.927     -17.862217      1073291.6    
     15500   301.33722     -47734.528      1591.9091     -38159.159      11.46081       1072513.5    
     15600   299.93331     -47670.919      1584.4157     -38140.238     -4.7932739      1073180.9    
     15700   300.31062     -47667.627      1546.8366     -38164.529     -7.2389777      1074100.6    
     15800   298.76364     -47709.682      1562.2751     -38232.13       15.250497      1074010.2    
     15900   297.89277     -47760.856      1602.4706     -38266.182     -12.121983      1073141.5    
     16000   301.41474     -47798.29       1597.2061     -38215.57      -15.184588      1072475.3    
     16100   301.50572     -47630.685      1537.3089     -38105.453      51.602491      1072916.2    
     16200   299.62075     -47577.047      1619.0366     -38020.026     -18.73924       1075777.2    
     16300   299.71043     -47483.167      1610.4378     -37932.369     -7.8200684      1077612      
     16400   306.19755     -47452.283      1553.3942     -37786.663     -7.303497       1078622.5    
     16500   302.54687     -47395.98       1605.791      -37774.682     -36.865639      1079072.4    
     16600   298.47868     -47453.078      1572.0008     -37973.35      -30.255776      1078415.5    
     16700   300.13328     -47547.616      1554.8454     -38041.207      14.277254      1074963.8    
     16800   302.87699     -47683.917      1560.5046     -38099.159      54.26742       1071239.4    
     16900   300.68908     -47798.721      1587.8308     -38244.603      11.192434      1072064.1    
     17000   296.98353     -47757.334      1597.483      -38291.736     -74.466569      1074872.6    
     17100   297.7643      -47663.405      1593.5716     -38181.033     -2.1498384      1074299.6    
     17200   298.09256     -47594.511      1597.2615     -38099.752      53.693532      1072710.1    
     17300   298.22158     -47624.138      1630.8519     -38092.37       15.989831      1073515.8    
     17400   300.15393     -47715.826      1598.3029     -38165.413     -25.049689      1075708.6    
     17500   295.62129     -47648.359      1506.9665     -38309.368     -42.396962      1077212.8    
     17600   298.87789     -47761.298      1517.1        -38325.895      31.72487       1074648.3    
     17700   303.19747     -47749.435      1597.7607     -38118.93       39.332034      1072230.5    
     17800   306.35933     -47729.371      1476.4497     -38136.409      23.751778      1072856.9    
     17900   298.01169     -47675.129      1556.9528     -38222.821     -63.325734      1076251.5    
     18000   298.81979     -47717.452      1568.7211     -38231.967     -41.370047      1076125.6    
     18100   299.79079     -47648.346      1600.8668     -38104.99       40.938676      1074246.3    
     18200   301.26466     -47521.648      1544.4324     -37995.679      28.402894      1075026.8    
     18300   296.31401     -47439.901      1551.2662     -38038.257      18.840355      1076994.3    
     18400   299.61633     -47608.51       1521.2074     -38149.436     -9.4156984      1076530.9    
     18500   294.97651     -47701.3        1602.1828     -38284.175     -27.230726      1074188.7    
     18600   299.04046     -47849.537      1520.6989     -38406.227      28.034219      1070024.2    
     18700   300.37886     -47904.972      1502.358      -38444.545      71.263106      1068184.6    
     18800   296.94083     -47690.593      1497.1087     -38326.501      64.663075      1071832.7    
     18900   295.38636     -47516.055      1537.6298     -38152.625     -32.751706      1077748.9    
     19000   302.40141     -47567.299      1518.6619     -38036.984     -70.351748      1080051.9    
     19100   301.84624     -47428.678      1499.7655     -37931.968      12.762518      1078173.8    
     19200   304.54281     -47528.659      1527.2226     -37933.049      8.5263776      1075901.5    
     19300   301.64289     -47610.341      1517.4352     -38101.348      21.434537      1074513.2    
     19400   300.96847     -47659.073      1525.2658     -38160.117      51.239231      1073935.6    
     19500   297.69008     -47661.55       1584.4963     -38190.219     -36.670133      1074618.3    
     19600   301.98827     -47671.286      1571.8403     -38098.737     -30.39549       1074603.4    
     19700   302.41151     -47626.342      1624.3235     -37990.097     -9.1229825      1074564.2    
     19800   298.85166     -47507.399      1593.1884     -37996.602      46.622887      1075422.7    
     19900   295.0457      -47538.119      1560.3503     -38160.993      1.6160381      1077493      
     20000   291.70788     -47547.576      1576.5329     -38242.698     -14.970102      1076970.1    
     20100   299.68327     -47643.916      1576.193      -38128.082      16.164425      1074510.7    
     20200   304.21983     -47704.463      1571.9667     -38072.666      44.591009      1072866.2    
     20300   298.67972     -47606.188      1547.5159     -38145.619      60.429445      1074454      
     20400   292.96265     -47526.605      1579.9717     -38185.044      7.2861447      1078508.1    
     20500   295.65819     -47550.694      1582.9586     -38134.733     -20.162221      1079564.4    
     20600   297.18004     -47559.752      1624.3979     -38062.032      13.010978      1077281.4    
     20700   296.27225     -47518.34       1639.3713     -38029.698      71.140376      1075237.8    
     20800   299.90731     -47558.815      1566.0038     -38047.235      17.255061      1076413      
     20900   298.91527     -47683.468      1563.9036     -38200.27      -73.626246      1077632.7    
     21000   299.60209     -47792.175      1576.1008     -38278.585     -10.587469      1074398.6    
     21100   300.83737     -47754.993      1541.7415     -38243.035      50.883051      1071518.4    
     21200   301.56215     -47756.303      1611.805      -38155.079      31.401817      1071895.1    
     21300   303.49643     -47533.92       1511.4875     -37981.768      28.337015      1074586.5    
     21400   300.3622      -47447.351      1543.6476     -37946.076     -12.039636      1077852.9    
     21500   298.47926     -47466.052      1580.0099     -37978.299     -43.404563      1079047.4    
     21600   301.71781     -47551.945      1527.049      -38031.354     -4.5228202      1077382.8    
     21700   298.04402     -47558.911      1539.2651     -38123.434      12.202096      1075059      
     21800   298.76899     -47659.233      1535.0364     -38208.779      27.281087      1073749.4    
     21900   298.45202     -47698.013      1522.1475     -38268.845      13.071075      1074216.1    
     22000   298.33478     -47674.117      1572.6833     -38197.519     -8.3264402      1075587.2    
     22100   303.16825     -47629.237      1573.5515     -38023.716     -7.0967225      1076706.7    
     22200   301.78945     -47559.823      1561.2194     -38003.164     -23.583955      1077564.1    
     22300   298.43911     -47539.915      1534.8592     -38098.377     -51.909274      1077428      
     22400   299.27045     -47731.902      1594.6575     -38208.541     -13.585426      1074865.1    
     22500   300.01247     -47758.052      1539.6924     -38269.997      45.108028      1071535.5    
     22600   292.98721     -47731.194      1562.7159     -38406.24       36.52203       1071494.9    
     22700   294.07686     -47784.913      1511.0212     -38482.785     -26.850838      1073478.1    
     22800   298.92959     -47754.565      1529.0138     -38305.878     -17.593961      1073787.8    
     22900   302.18446     -47736.831      1533.1642     -38197.761     -16.140152      1073059.1    
     23000   298.58275     -47628.309      1584.0084     -38133.817      15.78696       1073454.2    
     23100   298.70556     -47638.201      1647.0232     -38077.44       2.7412839      1074485.8    
     23200   299.93627     -47570.095      1607.9898     -38015.762     -6.6412121      1075756      
     23300   298.75864     -47433.354      1588.9011     -37929.308      16.533547      1076310.8    
     23400   304.57879     -47526.434      1581.3291     -37875.765     -39.362262      1077353.1    
     23500   302.73854     -47533.746      1537.0978     -37976.063     -20.71264       1077649.1    
     23600   298.13986     -47557.375      1525.4892     -38133.135      3.1721125      1075548      
     23700   303.81039     -47763.899      1524.9101     -38190.007      25.178832      1072114.2    
     23800   300.04214     -47790.22       1590.2802     -38250.792      26.024692      1071294.9    
     23900   296.06645     -47698.891      1521.0335     -38334.039      0.056266475    1073588.1    
     24000   296.81357     -47806.445      1520.6363     -38422.196     -62.964228      1074510.4    
     24100   298.43004     -47798.225      1537.6801     -38354.107      18.024516      1072118.6    
     24200   305.07271     -47853.397      1565.2572     -38205.715      24.118947      1070413.4    
     24300   302.77842     -47755.264      1557.0739     -38176.548     -4.7754792      1072884.2    
     24400   297.46062     -47540.317      1519.3449     -38140.218     -45.658861      1077457.8    
     24500   301.20101     -47450.566      1519.074      -37951.642     -38.067695      1079078.7    
     24600   303.31969     -47475.295      1534.691      -37904.622      16.202128      1076443.2    
     24700   300.27337     -47553.67       1606.0201     -37992.376      18.747279      1074602.1    
     24800   300.37144     -47614.028      1546.0494     -38110.106     -0.2141859      1074961.9    
     24900   299.93651     -47709.282      1605.2515     -38157.681     -28.730443      1075920.6    
     25000   301.67208     -47652.326      1537.8589     -38122.136     -14.422052      1075544.7    
     25100   302.12638     -47647.708      1567.9007     -38075.44      -2.0967824      1074339.1    
     25200   301.71605     -47674.809      1533.3197     -38147.994      0.25821548     1073925.9    
     25300   297.02608     -47772.888      1594.091      -38309.554     -20.259755      1073492      
     25400   296.48452     -47721.22       1561.0902     -38305.235      38.158552      1072908.8    
     25500   299.51194     -47664.105      1537.0163     -38191.987      28.71683       1074060.6    
     25600   297.96075     -47569.128      1571.004      -38104.119     -10.026025      1077381.7    
     25700   298.126       -47532.945      1586.9068     -38047.655     -53.013235      1078245.4    
     25800   302.65036     -47618.538      1578.1832     -38022.106      4.5699848      1075475.7    
     25900   304.26439     -47727.487      1599.8962     -38066.58      -9.0071145      1074088.7    
     26000   298.10707     -47601.655      1540.9279     -38162.845      9.5560051      1075326.2    
     26100   296.39731     -47615.631      1569.3175     -38193.729     -33.461802      1076104.3    
     26200   303.25803     -47728.28       1576.7511     -38117.181     -11.758775      1074243.5    
     26300   301.86716     -47583.554      1566.4494     -38019.605      14.69133       1073730.9    
     26400   301.19775     -47642.381      1607.0853     -38055.531     -4.2173345      1075733.1    
     26500   297.16291     -47606.001      1490.6444     -38242.489     -14.974474      1077273.3    
     26600   298.18593     -47734.134      1588.0046     -38246.158     -5.0099972      1075980.9    
     26700   298.24923     -47626.127      1554.5202     -38169.959      42.429258      1074424.3    
     26800   300.88341     -47603.566      1554.0253     -38078.105      27.878729      1074721.8    
     26900   305.53516     -47602.075      1574.1279     -37933.27       13.947448      1076312.3    
     27000   303.87214     -47513.986      1597.4574     -37865.91       15.329075      1079254.5    
     27100   299.45316     -47470.356      1520.4564     -38016.356     -8.9100063      1081693      
     27200   298.48874     -47572.154      1565.1664     -38098.994     -48.904294      1080758.3    
     27300   298.77866     -47509.082      1528.4826     -38064.925      78.746508      1076677.5    
     27400   298.46806     -47518.745      1526.8082     -38084.491      51.07633       1075538.7    
     27500   297.59371     -47683.522      1553.2448     -38245.996     -21.42055       1076688.9    
     27600   296.32277     -47696.127      1546.3767     -38299.141     -5.0019859      1075754.8    
     27700   298.65609     -47680.784      1541.396      -38226.961      17.432529      1074537.6    
     27800   298.89011     -47639.485      1572.321      -38148.537      16.849679      1075338.3    
     27900   300.16866     -47638.851      1581.8281     -38104.522     -16.584301      1076980.9    
     28000   300.66677     -47612.289      1583.9933     -38062.599      14.129138      1078329.5    
     28100   302.97341     -47616.446      1621.1978     -37968.441     -23.549438      1078965.7    
     28200   303.67469     -47538.81       1606.9413     -37886.482      30.734709      1077993.6    
     28300   300.14053     -47570.602      1609.2196     -38009.628      12.974135      1078208.2    
     28400   300.5663      -47632.685      1531.2367     -38138.413     -18.182363      1078510.3    
     28500   299.20158     -47587.832      1529.5615     -38131.392      23.085356      1076463.1    
     28600   306.20715     -47718.746      1498.3589     -38107.906      2.0506121      1074974.6    
     28700   302.83697     -47667.5        1555.0195     -38089.288      1.9127905      1075717.6    
     28800   294.11515     -47580.753      1601.924      -38186.707     -1.8434017      1076647.9    
     28900   295.42382     -47600.935      1555.1913     -38218.951     -0.42893536     1075857      
     29000   299.75095     -47687.53       1596.064      -38150.032      38.065818      1074173.1    
     29100   304.89434     -47647.826      1538.0601     -38032.066      26.333858      1075862.2    
     29200   301.84596     -47584.591      1552.1228     -38035.531     -56.522658      1079665.5    
     29300   298.45408     -47524.663      1540.3903     -38077.198     -42.920384      1081371.3    
     29400   298.20048     -47444.497      1553.0956     -37991.045      20.089805      1079247.5    
     29500   300.69347     -47432.716      1587.9035     -37878.409      62.002522      1077258.3    
     29600   304.4574      -47519.007      1537.7953     -37915.088      1.8047792      1078271.4    
     29700   300.8137      -47588.214      1557.3199     -38061.305     -39.360991      1079335.7    
     29800   299.71779     -47604.727      1551.0171     -38113.155      9.9679591      1077355.9    
     29900   298.37496     -47555.752      1550.6554     -38100.118      42.072165      1075113      
     30000   297.48618     -47611.651      1573.8785     -38156.34       42.827927      1074156.2    
     30100   298.05149     -47682.824      1568.5353     -38217.88      -17.318261      1075331.8    
     30200   300.25629     -47603.567      1576.9538     -38071.791     -8.5271715      1075928.4    
     30300   301.38379     -47512          1583.6014     -37943.705     -1.8917415      1076914      
     30400   298.11074     -47372.496      1506.984      -37967.533     -0.075289526    1078216.9    
     30500   299.70629     -47549.948      1537.1883     -38072.509     -39.032564      1077774.9    
     30600   299.13714     -47635.058      1578.9839     -38130.903     -3.3934862      1075256.4    
     30700   298.92658     -47760.987      1580.5772     -38260.816     -14.163215      1072855.7    
     30800   300.3858      -47885.827      1539.6673     -38387.907     -19.695752      1072257.5    
     30900   302.07498     -47886.099      1526.6631     -38356.431     -21.579584      1072319.8    
     31000   302.04877     -47793.721      1550.238      -38241.172      1.390368       1072783.7    
     31100   300.7717      -47679.563      1545.8854     -38165.201      0.73528887     1074024.8    
     31200   299.02708     -47586.746      1502.5898     -38161.901      1.0229166      1075168.4    
     31300   298.4709      -47634.914      1539.3624     -38188.03       6.9466772      1076071.1    
     31400   302.24978     -47681.942      1468.9188     -38205.387     -12.987469      1075933      
     31500   299.41731     -47651.615      1517.954      -38201.067      15.26896       1075376.2    
     31600   302.22466     -47669.707      1543.3938     -38119.342     -15.174491      1074974.7    
     31700   301.58539     -47594.017      1567.6914     -38036.291      33.845656      1075217.5    
     31800   299.10191     -47560.406      1533.9943     -38102.173      43.794002      1077364.3    
     31900   300.23864     -47734.088      1533.6711     -38246.062     -68.844704      1078653.1    
     32000   297.64014     -47698.938      1575.0947     -38238.332      1.1313379      1075392.2    
     32100   303.42862     -47789.704      1553.648      -38197.188      37.808272      1071660.5    
     32200   301.07213     -47829.529      1607.2724     -38245.82       23.670768      1071974.8    
     32300   299.7998      -47795.288      1588.8087     -38263.751     -52.30133       1075017.8    
     32400   296.60888     -47661.461      1573.4745     -38229.797     -4.3337763      1076159.2    
     32500   300.79796     -47658.196      1567.0976     -38121.926      16.85971       1075332.8    
     32600   300.00186     -47533.34       1566.3329     -38018.925      20.119462      1075714.5    
     32700   300.90565     -47549.466      1612.1299     -37965.31      -27.206456      1077147.5    
     32800   300.66826     -47442.4        1579.0479     -37897.616     -8.5126353      1078934.8    
     32900   302.90627     -47347.8        1594.4528     -37728.319      24.420822      1080436.3    
     33000   302.77188     -47315.523      1552.8483     -37741.206     -24.676056      1081996.9    
     33100   299.44129     -47410.958      1599.1063     -37878.623     -11.622863      1081398.4    
     33200   304.73137     -47504.209      1513.2408     -37917.585      19.043721      1079462.5    
     33300   298.56835     -47475.517      1588.3077     -37977.107      12.21579       1079373.7    
     33400   302.0801      -47577.992      1581.6486     -37993.203     -39.206338      1080053.6    
     33500   304.28321     -47542.109      1570.3252     -37910.275     -18.356017      1079104      
     33600   303.67399     -47444.946      1648.3592     -37751.218      8.31984        1079721.2    
     33700   300.33124     -47367.403      1600.1858     -37810.41      -41.870811      1082315.3    
     33800   300.16304     -47423.462      1537.7872     -37933.323     -28.403623      1082017.7    
     33900   301.66438     -47483.85       1536.3011     -37955.422      21.343091      1078917.4    
     34000   300.40387     -47550.94       1592.2555     -37999.952      30.20869       1077058.4    
     34100   300.45684     -47566.113      1540.2548     -38065.723     -10.976494      1078229.4    
     34200   293.26        -47481.22       1526.6247     -38185.13      -11.287536      1078922.5    
     34300   293.82413     -47682.421      1553.4686     -38344.541      6.484021       1075881.8    
     34400   298.09        -47842.124      1630.2879     -38314.407      44.328296      1071251.1    
     34500   307.09356     -47901.948      1606.9        -38159.084      33.200813      1071104.3    
     34600   300.96633     -47594.224      1580.8968     -38039.694      37.811783      1076561.4    
     34700   300.35595     -47406.03       1564.9099     -37883.658     -60.98325       1081470.2    
     34800   303.03512     -47369.306      1554.5053     -37786.358     -19.461318      1081663.2    
     34900   304.01409     -47449.19       1530.2998     -37864.512     -9.9357952      1080220.2    
     35000   300.62329     -47473.376      1507.4458     -38001.385      15.871838      1079489.9    
     35100   297.25633     -47495.059      1545.1416     -38074.575      7.8371965      1079090.2    
     35200   300.74928     -47565.635      1557.206      -38040.546     -23.370995      1078702.1    
     35300   301.95078     -47477.602      1595.7044     -37882.183      21.157316      1078345.6    
     35400   302.37404     -47456.925      1605.1307     -37840.866     -6.3225715      1079337.2    
     35500   300.27619     -47427.548      1591.4755     -37880.723     -11.773864      1080629      
     35600   297.51965     -47384.741      1562.4569     -37939.965     -31.592783      1081564.4    
     35700   300.56871     -47456.416      1553.949      -37939.368      1.6060882      1080409.6    
     35800   298.21726     -47490.901      1624.6666     -37965.433      18.558975      1078057.4    
     35900   300.5087      -47577.064      1534.3995     -38081.156      14.316354      1075900.7    
     36000   299.28104     -47653.743      1540.9921     -38183.767      14.949362      1075743.2    
     36100   297.37304     -47657.839      1545.8699     -38233.534     -36.139987      1077312      
     36200   296.72937     -47610.958      1602.3525     -38147.224     -12.915636      1077341.3    
     36300   304.37155     -47632.316      1580.9796     -37987.487      2.1943535      1076518      
     36400   305.50446     -47678.373      1549.6192     -38034.89      -3.2587451      1076855.6    
     36500   296.64309     -47557.133      1570.3956     -38127.642     -36.485895      1078661.9    
     36600   299.44595     -47632.187      1528.8845     -38169.95      -16.060093      1077890.8    
     36700   300.11765     -47654.294      1546.9599     -38156.185      9.2476726      1075928.4    
     36800   304.55521     -47671.282      1599.0438     -38003.523      42.408869      1074766.5    
     36900   303.71497     -47622.805      1565.2905     -38011.06       1.2789563      1076258.7    
     37000   298.17939     -47597.846      1546.4253     -38151.622     -43.56379       1078233.1    
     37100   298.687       -47624.581      1535.588      -38175.747      6.4150607      1076077.7    
     37200   301.31238     -47683.301      1533.854      -38166.646      52.741477      1073072.1    
     37300   301.6884      -47843.255      1576.4483     -38274.043      12.341337      1073319      
     37400   292.28232     -47710.092      1562.2239     -38404.304     -4.3790692      1075377      
     37500   299.75336     -47808.491      1575.6547     -38291.338     -40.654604      1074429.9    
     37600   301.36358     -47720.46       1544.1689     -38192.133      68.854534      1071893.3    
     37700   299.5662      -47723.101      1588.0182     -38198.544      22.164486      1073424.8    
     37800   297.53337     -47674.733      1550.4121     -38241.639     -71.300993      1077114.5    
     37900   298.8093      -47673.002      1537.1312     -38219.385     -25.726906      1077768.4    
     38000   302.1674      -47595.891      1543.4451     -38046.992     -18.781526      1077495.3    
     38100   301.26889     -47571.528      1562.6293     -38027.25       23.991422      1076923      
     38200   300.25042     -47627.115      1542.6139     -38129.835      17.557849      1076687.1    
     38300   299.69822     -47696.249      1533.0803     -38223.131     -0.49069398     1076282.4    
     38400   300.13291     -47804.385      1572.9722     -38279.86      -18.054548      1074380.3    
     38500   297.10114     -47804.028      1520.818      -38411.979      10.306427      1073444      
     38600   293.88134     -47788.274      1553.6643     -38448.682      17.282038      1072569.2    
     38700   300.20509     -47769.934      1510.6237     -38305.845      51.880374      1072781.3    
     38800   298.80648     -47642.809      1536.102      -38190.296      12.184797      1076597.1    
     38900   299.06415     -47598.153      1562.9772     -38111.938     -66.859398      1079827.5    
     39000   302.49174     -47574.091      1535.6023     -38024.442     -49.715717      1079197.2    
     39100   306.7702      -47611.584      1508.7933     -37975.393     -1.2864337      1077886.3    
     39200   299.60488     -47515.762      1537.0827     -38041.116     -25.056374      1078096      
     39300   296.09715     -47670.713      1567.8457     -38258.235     -52.743688      1076697.3    
     39400   302.98988     -47973.74       1630.18       -38316.316     -21.839596      1071771.1    
     39500   302.29957     -47878.83       1556.0509     -38313.823      59.718338      1068431.4    
     39600   297.22031     -47753.329      1543.8254     -38335.115      27.060827      1070880.4    
     39700   296.11944     -47792.035      1595.5852     -38351.227     -54.752127      1074829.4    
     39800   297.51433     -47663.797      1609.0297     -38172.589     -16.577665      1075405.6    
     39900   302.55068     -47668.152      1565.7232     -38086.821      4.7565072      1074557.1    
     40000   295.49218     -47509.888      1550.7281     -38130.556      89.469684      1074285.3    
     40100   296.76793     -47588.211      1511.5828     -38214.225     -27.927807      1076215.4    
     40200   298.77078     -47659.994      1532.9852     -38211.543     -55.370519      1076150.5    
     40300   302.96407     -47596.322      1549.0316     -38020.73       48.879476      1074571.2    
     40400   304.78814     -47673.035      1572.8228     -38025.326      6.794716       1074799.6    
     40500   300.29229     -47614.898      1518.1261     -38140.996     -4.9922129      1076490.2    
     40600   297.11731     -47566.131      1524.9143     -38169.557     -32.737062      1076486.6    
     40700   300.15025     -47647.571      1601.5188     -38094.04       11.931375      1074916.5    
     40800   299.63814     -47572.136      1571.6916     -38061.999      4.7774335      1075184.1    
     40900   298.24363     -47464.216      1527.8825     -38034.834     -3.1424461      1078331.2    
     41000   302.70451     -47505.646      1530.7647     -37955.197     -67.807719      1079989.2    
     41100   306.89504     -47585.989      1533.6899     -37921.594     -19.123539      1077589.7    
     41200   302.41476     -47534.59       1566.9126     -37955.671      29.683775      1075953.3    
     41300   302.19178     -47583.693      1569.0769     -38008.517     -41.759391      1077622.7    
     41400   298.59343     -47467.976      1541.0139     -38016.195     -28.742162      1078854.7    
     41500   299.31371     -47482.203      1569.5326     -37982.82       32.7515        1078053.1    
     41600   302.92923     -47529.43       1591.0216     -37912.771      2.0296436      1077413      
     41700   304.09202     -47477.135      1528.6595     -37892.032     -4.2294413      1077522.4    
     41800   299.23724     -47474.269      1517.0131     -38029.432     -12.755316      1078737.3    
     41900   299.69155     -47558.765      1520.3267     -38098.579     -25.303713      1078553.6    
     42000   303.91641     -47624.539      1519.8459     -38052.902     -8.9716402      1075891.8    
     42100   300.97817     -47534.792      1585.5761     -37975.269      75.331804      1072624      
     42200   301.24721     -47617.128      1625.128      -38010.925      32.500775      1073562.1    
     42300   296.18159     -47585.855      1560.8868     -38178.099     -23.880114      1076707.8    
     42400   296.26897     -47548.677      1549.8282     -38149.665     -9.3940755      1076993.7    
     42500   301.12492     -47575.371      1570.2773     -38027.258      16.847007      1075799.8    
     42600   299.81202     -47483.994      1553.2487     -37987.693      17.232788      1076828.6    
     42700   298.76519     -47466.191      1578.666      -37972.208     -33.254909      1079152.6    
     42800   300.03713     -47368.353      1603.7822     -37815.555      12.588026      1079632.1    
     42900   305.1392      -47406.973      1592.6511     -37730.135     -6.4560736      1079607      
     43000   303.21505     -47478.374      1574.6742     -37870.49      -1.3538968      1079217.8    
     43100   302.69173     -47575.07       1571.2509     -37984.474     -42.076793      1078668.6    
     43200   300.59859     -47615.879      1601.2836     -38050.705     -19.951312      1077146.6    
     43300   297.69868     -47597.472      1603.1106     -38107.299     -0.15817045     1075288.4    
     43400   297.7327      -47706.649      1600.1297     -38218.556      21.090299      1073121.6    
     43500   294.81082     -47771.469      1599.3161     -38361.6        25.473274      1072031.6    
     43600   295.6233      -47780.452      1586.4729     -38361.901      39.475531      1071631.3    
     43700   301.8147      -47786.535      1524.4722     -38265.953     -13.373099      1073344      
     43800   298.673       -47674.861      1566.6932     -38195.292     -33.368972      1076443.9    
     43900   298.60367     -47662.705      1656.1995     -38095.467     -68.296802      1078599.9    
     44000   302.29194     -47582.566      1573.1574     -38000.655      3.8185368      1077447      
     44100   300.29607     -47494.089      1557.547      -37980.666      18.328771      1076099.4    
     44200   301.77289     -47657.056      1551.951      -38110.103     -25.136912      1076104      
     44300   293.76934     -47568.568      1551.171      -38234.437      27.818622      1075414.8    
     44400   298.49387     -47689.021      1586.7289     -38194.163      2.8526892      1073216.3    
     44500   301.56066     -47686.197      1547.2003     -38149.618      26.293576      1071595      
     44600   299.61337     -47625.827      1559.9876     -38128.05       10.096103      1073097.8    
     44700   298.00232     -47558.263      1498.0235     -38165.133      19.440662      1075360.4    
     44800   298.85782     -47740.909      1563.4688     -38259.669     -68.431859      1076171.9    
     44900   301.54689     -47768.448      1530.185      -38249.249     -15.049699      1073895.4    
     45000   302.55274     -47815.446      1577.7581     -38222.025      37.69023       1070082.3    
     45100   301.40188     -47838.734      1583.0109     -38270.55       14.514082      1069956.2    
     45200   302.03089     -47918.804      1549.9884     -38366.978     -90.988819      1072749.3    
     45300   300.12479     -47777.114      1544.4203     -38281.356     -10.9081        1072717.8    
     45400   304.34706     -47780.16       1588.7285     -38128.231      17.053262      1072596.8    
     45500   301.87711     -47721.278      1599.8898     -38123.626     -8.2923584      1075400.8    
     45600   296.4852      -47540.092      1553.2159     -38131.963     -35.984273      1078087.8    
     45700   304.9471      -47624.382      1505.1986     -38040.086     -23.327896      1076666.6    
     45800   306.51781     -47582.6        1561.415      -37900.473      32.493185      1074777.5    
     45900   303.43711     -47619.729      1633.5432     -37947.093     -38.000185      1077242.4    
     46000   298.81259     -47559.284      1493.2979     -38149.412     -74.445893      1078469.2    
     46100   302.6065      -47721.508      1546.0763     -38158.345     -9.3388103      1074140.5    
     46200   302.62815     -47739.543      1566.5745     -38155.308      87.533112      1069913.7    
     46300   300.74128     -47752.749      1492.1165     -38292.961      19.1634        1072202.9    
     46400   294.99334     -47673.222      1520.6227     -38337.211     -52.059974      1076963.3    
     46500   294.6218      -47655.971      1652.5378     -38197.888     -67.424604      1077349.8    
     46600   304.24727     -47731.14       1552.2874     -38118.296      30.608664      1072891      
     46700   301.65493     -47755.522      1560.2822     -38203.363      39.063167      1070989.7    
     46800   299.10179     -47809.69       1566.0218     -38319.433     -16.36441       1072646.5    
     46900   297.39829     -47695.76       1513.5928     -38303.064      34.034489      1074392.4    
     47000   300.52177     -47678.727      1515.3761     -38201.495     -25.462366      1074944.6    
     47100   299.38514     -47638.638      1573.4458     -38133.451      32.492707      1073511.4    
     47200   297.46228     -47638.377      1597.8171     -38159.761      46.407591      1073492.1    
     47300   299.92367     -47723.24       1554.1754     -38223.055     -14.414811      1075219.1    
     47400   298.85308     -47758.043      1530.8722     -38309.524     -41.255897      1074513.3    
     47500   298.15761     -47822.551      1575.3658     -38347.965      34.07436       1071193.5    
     47600   300.77118     -47903.252      1567.0587     -38367.73       17.649916      1069803.7    
     47700   296.08782     -47838.138      1604.9354     -38388.817      2.2216998      1070965.2    
     47800   298.45308     -47797.005      1582.0803     -38307.876     -33.792205      1073367      
     47900   299.06601     -47675.155      1587.1518     -38164.716     -24.35266       1074627.3    
     48000   303.29423     -47650.205      1512.2182     -38102.68      -25.672918      1074904.9    
     48100   302.91748     -47672.919      1507.4177     -38140.176      7.1735388      1074099.4    
     48200   300.58852     -47787.386      1526.2502     -38297.512     -14.142062      1072651.5    
     48300   297.85787     -47774.781      1534.8682     -38348.633      41.540883      1071012.9    
     48400   298.17645     -47727.953      1531.4622     -38296.771      15.04938       1071756.4    
     48500   299.58187     -47687.562      1539.6215     -38210.987      15.102868      1073707.5    
     48600   301.32795     -47652.749      1569.4283     -38100.107     -67.307343      1076380.8    
     48700   302.77163     -47555.716      1507.5335     -38026.72       17.715296      1076738.1    
     48800   302.58741     -47605.707      1551.7996     -38037.326     -7.9133184      1076734.9    
     48900   299.70817     -47566.749      1571.6448     -38054.804      17.468319      1075780.7    
     49000   298.54614     -47550.714      1563.3486     -38077.852     -2.3590909      1076166.8    
     49100   301.13644     -47547.587      1521.6109     -38047.836     -25.909599      1077259.5    
     49200   299.46736     -47400.559      1544.4864     -37922.152      34.946991      1077557.7    
     49300   305.95416     -47501.199      1579.4786     -37815.943      0.8010873      1077505.1    
     49400   300.95234     -47403.671      1535.4086     -37894.999      6.0218         1077347.4    
     49500   300.71405     -47564.57       1551.2212     -38046.399     -7.2400965      1076217.9    
     49600   298.37951     -47582.704      1600.0105     -38077.594      18.960846      1074979.8    
     49700   300.93778     -47620.809      1547.9334     -38099.998      15.526119      1075076.7    
     49800   299.29918     -47691.44       1583.4032     -38178.572      4.1727979      1075552.3    
     49900   299.42743     -47724.542      1511.7011     -38279.979     -10.991192      1074978.4    
     50000   297.99542     -47702.597      1532.4146     -38275.259      14.457992      1073785.1    
     50100   301.51462     -47631.292      1541.0077     -38102.125      45.705989      1072510.8    
     50200   300.05573     -47579.344      1564.7418     -38065.094      17.716375      1073992.8    
     50300   297.94334     -47625.093      1593.6542     -38137.895     -61.124969      1076555      
     50400   296.44469     -47572.249      1516.4278     -38201.982     -2.2436498      1075838      
     50500   300.25551     -47732.774      1537.6006     -38240.372     -4.0602496      1073416.8    
     50600   303.8803      -47854.954      1528.2496     -38275.87       4.8534479      1070737.6    
     50700   296.62193     -47744.953      1520.6248     -38365.793      43.300726      1070151      
     50800   298.99383     -47866.23       1555.9048     -38388.951     -48.796505      1071648.6    
     50900   298.29065     -47700.357      1547.2489     -38250.363      44.158822      1070951.6    
     51000   300.74616     -47689.26       1558.3078     -38163.152      52.309672      1071510      
     51100   299.7381      -47646.179      1530.2308     -38174.855     -14.771772      1074918.8    
     51200   296.14159     -47531.772      1542.7607     -38143.202     -30.210571      1077008.7    
     51300   304.7467      -47545.804      1528.09       -37943.925      34.317154      1075377.6    
     51400   303.42339     -47518.103      1531.3396     -37948.035      41.816601      1075398.5    
     51500   298.21681     -47535.5        1575.3137     -38059.397     -6.7613113      1077771.1    
     51600   300.7492      -47618.873      1536.746      -38114.246     -68.980866      1078082.5    
     51700   300.48626     -47622.233      1577.5228     -38083.796      25.362727      1074405      
     51800   304.13062     -47790.715      1577.9846     -38155.265      11.749894      1072109.3    
     51900   299.26325     -47844.816      1581.47       -38334.833     -11.104992      1072413.3    
     52000   298.88611     -47748.378      1501.5919     -38328.266      10.861354      1073215.1    
     52100   299.53722     -47675.123      1539.0637     -38200.288     -29.048786      1074958.2    
     52200   299.23711     -47606.591      1569.1251     -38109.645     -0.21940765     1075888.8    
     52300   300.77978     -47591.019      1550.7637     -38071.565     -6.5618265      1075723.9    
     52400   300.90545     -47560.764      1535.6677     -38053.076      18.46098       1075517      
     52500   297.50554     -47579.399      1571.9663     -38125.488     -14.285614      1075598      
     52600   295.97339     -47613.996      1479.6891     -38292.954      12.289981      1074036.2    
     52700   297.25948     -47703.257      1562.5072     -38265.324      48.694671      1071462.7    
     52800   302.8793      -47727.627      1545.9792     -38157.333      14.601412      1072090.3    
     52900   299.52753     -47596.647      1604.8211     -38056.311      2.0180582      1076776.3    
     53000   298.95982     -47424.805      1539.6385     -37964.693     -54.54936       1081897.5    
     53100   304.33556     -47355.116      1552.9066     -37739.313     -73.903044      1082262.9    
     53200   306.26159     -47444.9        1548.7115     -37782.265      13.515594      1077999      
     53300   303.50066     -47551.48       1536.1196     -37974.583      60.753189      1075542.3    
     53400   299.19594     -47601.292      1582.7585     -38091.804     -41.875646      1076907.5    
     53500   301.20715     -47605.826      1510.4909     -38115.322     -22.485601      1077562.6    
     53600   300.93864     -47590.628      1512.2497     -38105.479      12.363459      1076402.7    
     53700   303.71373     -47621.44       1510.8949     -38064.124      5.0514193      1075340.3    
     53800   303.22389     -47607.407      1549.9969     -38023.967      22.072971      1075403.2    
     53900   295.31137     -47490.457      1565.8759     -38100.767      22.509941      1076543.9    
     54000   296.46512     -47566.524      1560.4479     -38151.695     -15.551232      1077029.5    
     54100   300.96742     -47599.888      1562.3636     -38063.862      9.5511881      1075526.7    
     54200   304.43298     -47554.35       1528.6359     -37960.237      75.817402      1074080.7    
     54300   300.09397     -47527.525      1492.5704     -38084.433      9.1798789      1076171.8    
     54400   296.92453     -47559.2        1536.2725     -38156.376     -38.805649      1077405.6    
     54500   297.84617     -47607.787      1601.6481     -38115.169      5.7729749      1075389.3    
     54600   302.32817     -47690.661      1580.3853     -38100.562      16.991497      1074147.8    
     54700   298.20972     -47602.71       1541.7591     -38160.35      -5.3810898      1075400.4    
     54800   299.80073     -47732.223      1546.9037     -38242.567     -80.719375      1076081.5    
     54900   298.22734     -47725.117      1598.526      -38225.523     -3.338705       1072548.6    
     55000   307.21881     -47762.754      1511.17       -38112.301      80.002076      1070042.4    
     55100   302.72787     -47727.885      1550.4227     -38157.16       2.8273955      1073937.4    
     55200   295.08294     -47652.787      1556.9622     -38278.062     -88.319815      1079526.1    
     55300   298.19857     -47681.274      1607.8147     -38173.154     -66.328559      1077976.3    
     55400   303.83043     -47742.011      1581.9765     -38110.521      59.255307      1071222.7    
     55500   300.97923     -47776.681      1619.2017     -38183.504      74.731914      1069456      
     55600   294.7245      -47682.799      1552.7244     -38321.809      7.5022445      1073026.3    
     55700   298.15356     -47759.994      1603.1604     -38257.72      -67.731676      1076540.1    
     55800   299.09023     -47607.187      1569.72       -38113.538     -28.032481      1077358.3    
     55900   300.2451      -47543.129      1560.4626     -38028.141     -4.8988084      1076914.3    
     56000   303.33772     -47628.423      1590.0578     -38001.905     -5.2303659      1075045.2    
     56100   298.38709     -47610.605      1586.4962     -38118.808      41.307         1073136.2    
     56200   296.38206     -47646.481      1553.9438     -38240.357      8.8713003      1073771      
     56300   298.70687     -47654.467      1500.6296     -38240.065     -2.7316524      1075200.8    
     56400   296.97925     -47607.17       1584.7764     -38154.392      1.0902352      1075612.1    
     56500   297.80189     -47596.851      1617.3244     -38089.73       2.2439819      1075413      
     56600   299.60519     -47579.961      1576.8336     -38065.556      2.2276221      1075859.7    
     56700   301.76183     -47543.921      1532.3425     -38016.87      -27.172206      1076718.6    
     56800   303.84614     -47487.386      1572.4864     -37864.971     -1.1624006      1076693.1    
     56900   306.17965     -47462.35       1556.7007     -37793.897      27.853802      1077178.7    
     57000   301.82333     -47457.083      1524.6302     -37936.114     -21.118376      1078708.9    
     57100   298.93415     -47490.177      1564.9659     -38005.417     -17.241744      1078797.9    
     57200   301.93467     -47570.977      1567.9512     -38003.738     -16.431353      1077736.1    
     57300   301.40676     -47542.977      1543.7154     -38013.96       9.5663147      1076127      
     57400   296.53271     -47544.898      1538.9575     -38149.77      -11.05327       1076073.7    
     57500   294.06294     -47589.306      1561.7366     -38236.83       8.7878075      1074522.4    
     57600   304.1088      -47781.775      1557.1773     -38167.709      21.952102      1070976.3    
     57700   303.19505     -47684.697      1607.4621     -38044.556      86.21556       1070297.9    
     57800   299.77193     -47590.18       1549.676      -38098.515      14.232522      1074755.2    
     57900   297.05745     -47596.34       1517.3369     -38208.93      -74.633742      1078599      
     58000   300.5237      -47580.283      1543.7        -38074.677     -2.0771538      1077254.6    
     58100   303.77954     -47583.147      1540.9548     -37994.027      31.596209      1074719.1    
     58200   299.70357     -47596.816      1551.3586     -38105.279     -7.8493868      1074668.3    
     58300   297.16787     -47617.499      1546.3082     -38198.191      5.1039025      1074518.9    
     58400   298.64095     -47683.445      1537.9008     -38233.519      3.5792544      1073901.4    
     58500   299.07068     -47778.959      1532.1707     -38323.377      1.8782177      1072317.3    
     58600   298.97701     -47909.297      1505.4396     -38482.928      13.147338      1070803.1    
     58700   300.13372     -47989.702      1519.3443     -38518.783      18.974845      1069566.9    
     58800   295.54032     -47771.388      1576.246      -38365.262      21.195887      1070676.4    
     58900   300.14289     -47765.057      1559.725      -38253.514     -36.300501      1072713.3    
     59000   297.75565     -47624.647      1540.5635     -38195.512      19.123085      1073496.7    
     59100   301.35232     -47642.959      1530.6171     -38128.482      20.044614      1074649.7    
     59200   301.63726     -47632.648      1572.0899     -38069.15      -30.584916      1076273.3    
     59300   301.72235     -47553.354      1544.2456     -38015.446     -12.940364      1077240.7    
     59400   299.8416      -47455.697      1545.694      -37966.168      9.1720999      1077221.4    
     59500   300.81668     -47516.137      1583.7308     -37962.737      29.175133      1076167.6    
     59600   297.33588     -47581.412      1599.7925     -38104.169     -11.663384      1075481      
     59700   298.37482     -47695.838      1586.4195     -38204.443      28.74266       1074274.9    
     59800   298.51776     -47652.581      1532.9419     -38210.877      3.5390267      1074571.1    
     59900   299.98783     -47663.89       1583.9064     -38132.274     -8.5114609      1075317.1    
     60000   304.178       -47555.31       1546.1978     -37950.391      11.938936      1076853      
     60100   302.25714     -47480.581      1526.9969     -37945.752     -34.69453       1078561.2    
     60200   299.35949     -47515.541      1574.7222     -38009.756     -26.67921       1078343.3    
     60300   299.31402     -47536.442      1517.3749     -38089.209      9.902839       1076893.9    
     60400   300.10843     -47640.22       1556.2419     -38133.074      0.27965311     1075207.3    
     60500   304.44609     -47730.724      1512.6181     -38152.282      28.81448       1073462.7    
     60600   301.79147     -47718.687      1504.4819     -38218.711      26.406651      1074059      
     60700   294.26378     -47626.185      1550.1193     -38280.006     -14.884209      1076660.5    
     60800   299.25644     -47710.076      1604.0502     -38177.694     -36.733537      1076673.2    
     60900   306.7798      -47704.981      1551.1123     -38026.217      3.5658693      1074479.8    
     61000   300.26799     -47601.279      1554.5621     -38091.585      42.296528      1074579.3    
     61100   297.38203     -47623.435      1559.2997     -38185.463     -11.802871      1076422.5    
     61200   298.91132     -47687.534      1560.5692     -38207.775     -26.356969      1076361.2    
     61300   299.13416     -47564.175      1554.2745     -38084.808      32.763151      1073746.8    
     61400   305.91414     -47650.923      1567.2741     -37978.931      79.819932      1072601.2    
     61500   301.29131     -47665.285      1580.4176     -38102.624     -36.68782       1077286.8    
     61600   297.23577     -47507.652      1506.3091     -38126.544     -60.820465      1080743.7    
     61700   300.44793     -47573.502      1542.1439     -38071.459     -33.984794      1078028.4    
     61800   301.56419     -47626.779      1607.6852     -38029.621      53.442012      1073042.3    
     61900   302.1073      -47758.957      1550.035      -38205.06       64.295693      1072317.3    
     62000   295.27776     -47610.666      1502.9332     -38284.809      9.9155612      1076111.7    
     62100   296.05535     -47515.036      1500.4135     -38171.098     -25.015971      1079713.2    
     62200   299.38175     -47487.566      1544.422      -38011.491     -9.1136796      1079575.9    
     62300   302.68601     -47533.928      1581.3258     -37933.409      0.98753045     1077791.4    
     62400   303.30707     -47584.099      1558.0928     -37990.359      23.604409      1076080.8    
     62500   299.23002     -47623.237      1567.0334     -38128.571      18.486101      1076058.6    
     62600   299.71871     -47665.615      1544.2463     -38180.789     -10.795736      1076061.5    
     62700   300.01385     -47689.42       1563.6314     -38177.39       22.334061      1074647.3    
     62800   300.11193     -47654.914      1526.5705     -38177.346      33.33974       1074001.4    
     62900   296.54725     -47637.635      1591.2337     -38189.844      2.2274569      1074969.9    
     63000   299.77838     -47602.52       1588.5724     -38071.787     -0.32063806     1076308.1    
     63100   299.25224     -47468.103      1608.4391     -37931.443      7.495754       1078367      
     63200   301.98497     -47491.667      1550.4379     -37940.608     -29.923345      1079723.4    
     63300   301.81407     -47535.406      1541.3628     -37997.95      -11.438817      1078712.4    
     63400   299.71416     -47631.777      1581.4388     -38109.879     -18.758447      1076604.1    
     63500   300.80827     -47758.876      1562.7345     -38226.695     -12.362553      1074586.7    
     63600   298.92747     -47777.256      1567.5193     -38290.12       31.690992      1073555.7    
     63700   293.9059      -47675.241      1571.6771     -38316.986     -12.638106      1074760.1    
     63800   298.2532      -47638.76       1577.4494     -38159.557     -11.268904      1075528.3    
     63900   301.3032      -47619.82       1601.4315     -38035.831      28.957577      1075079.1    
     64000   303.88421     -47657.766      1571.2088     -38035.619     -3.0458007      1075499.5    
     64100   295.98325     -47535.371      1558.7836     -38134.973     -30.832746      1077329.9    
     64200   299.39866     -47651.353      1545.1883     -38174.065     -19.999091      1075517.7    
     64300   304.08056     -47702.526      1559.4088     -38086.978      91.482137      1071678.4    
     64400   305.34898     -47690.603      1566.0701     -38034.788      21.716491      1073867      
     64500   295.54443     -47544.17       1559.4914     -38154.69      -62.596146      1077971.8    
     64600   298.70217     -47604.869      1541.3417     -38149.88      -26.474812      1076206.5    
     64700   302.59928     -47641.805      1618.1639     -38006.745      50.18068       1072119.3    
     64800   298.19731     -47513.1        1570.7704     -38042.057      79.449462      1073037.9    
     64900   298.7018      -47539.747      1542.3561     -38083.752      2.2021274      1077518.2    
     65000   299.36055     -47545.895      1572.2143     -38042.59      -51.629387      1079354.9    
     65100   301.40344     -47429.605      1530.9608     -37913.43       25.075296      1076881.1    
     65200   305.59927     -47526.406      1536.0601     -37893.97       46.737491      1075229.4    
     65300   300.10869     -47477.496      1561.0832     -37965.501     -1.7569538      1076934.9    
     65400   299.71808     -47508.721      1586.9015     -37981.257     -42.976526      1078406.2    
     65500   297.97384     -47396.566      1554.5663     -37947.648      10.173497      1077752.3    
     65600   304.28261     -47458.256      1522.5068     -37874.256      37.259084      1076792.7    
     65700   307.6526      -47569.299      1630.4003     -37788.123     -15.564589      1077644.9    
     65800   301.08348     -47427.253      1556.9736     -37893.543     -31.414858      1079546.8    
     65900   297.81548     -47545.971      1615.6406     -38040.174     -15.797437      1078588.1    
     66000   300.99997     -47645.749      1604.3492     -38066.875     -28.104493      1075488.7    
     66100   305.02024     -47677.579      1528.3735     -38068.17       36.348616      1073227.5    
     66200   299.59663     -47728.104      1543.1453     -38247.614      10.916006      1073587.4    
     66300   296.03642     -47711.912      1561.4877     -38307.401     -17.69209       1075118.2    
     66400   299.85852     -47704.212      1527.7466     -38232.182     -20.847606      1075119.7    
     66500   302.98128     -47694.999      1534.8996     -38133.083     -12.837454      1075156.4    
     66600   300.1708      -47582.3        1538.1889     -38091.554     -1.0447136      1076059.6    
     66700   299.94046     -47573.933      1543.6713     -38083.807     -20.834489      1076618.3    
     66800   300.72964     -47639.694      1588.5263     -38083.805     -1.2079875      1076145.9    
     66900   303.70239     -47713.681      1553.5374     -38114.022     -14.773506      1075481.4    
     67000   298.58763     -47673.74       1578.6628     -38184.464     -3.5755747      1074750.9    
     67100   299.97305     -47727.879      1569.6291     -38210.932      12.038995      1073057.7    
     67200   299.37468     -47745.385      1552.3505     -38261.57       33.484701      1072079.7    
     67300   300.66047     -47836.515      1547.5069     -38323.478     -5.4927968      1072511      
     67400   299.05921     -47796.377      1542.9516     -38330.319     -9.9597811      1072488.7    
     67500   300.55365     -47875.032      1615.9842     -38296.348      1.7057587      1072514      
     67600   298.92286     -47771.603      1579.5058     -38272.602      5.7017516      1074072.1    
     67700   298.20161     -47612.898      1518.2063     -38194.305      23.73356       1076194.1    
     67800   300.69254     -47588.859      1565.3861     -38057.093     -20.945405      1077207      
     67900   296.96012     -47482.531      1580.3912     -38034.645      34.131289      1076882.8    
     68000   301.6917      -47559.643      1512.6257     -38054.167     -1.9058364      1075782.3    
     68100   299.95827     -47677.79       1559.6944     -38171.169      16.363684      1073541.3    
     68200   296.12874     -47657.996      1521.0296     -38291.497      34.74562       1072980.5    
     68300   297.87711     -47731.778      1547.7629     -38292.226     -0.43539949     1073863.8    
     68400   297.18599     -47640.96       1537.7721     -38229.709      24.383121      1074410.3    
     68500   300.68125     -47682.703      1556.7876     -38159.835      31.350704      1074180.6    
     68600   298.34019     -47576.287      1544.8847     -38127.344      34.885801      1074670.2    
     68700   299.97586     -47634.051      1501.1444     -38185.514     -6.1859081      1075913.1    
     68800   299.69356     -47660.442      1483.3497     -38237.179     -39.095509      1076259.1    
     68900   296.41566     -47579.23       1559.1967     -38166.963      77.35754       1074295.1    
     69000   304.19424     -47631.123      1531.993      -38039.978      35.893538      1074938.9    
     69100   299.14424     -47503.831      1527.1529     -38051.318     -10.019653      1078758.1    
     69200   296.95206     -47489.442      1575.9951     -38046.165     -85.564088      1081161.4    
     69300   304.33226     -47419.722      1524.9629     -37831.951      50.183787      1078634.6    
     69400   302.56653     -47388.428      1535.3196     -37837.08       38.260027      1078118.4    
     69500   300.666       -47476.586      1544.2065     -37966.703     -38.211369      1079436.7    
     69600   300.48918     -47552.34       1542.3777     -38048.97      -38.682189      1078606.7    
     69700   300.98431     -47592.055      1553.105      -38064.84       22.160761      1075476.3    
     69800   303.59436     -47725.879      1528.0612     -38154.559      25.969363      1072908.7    
     69900   296.58096     -47723.573      1527.7928     -38338.33      -7.3070461      1072053.9    
     70000   299.14693     -47794.552      1547.4189     -38321.702      20.302549      1070949.5    
     70100   299.35495     -47725.65       1548.6721     -38246.036      32.397167      1071978.5    
     70200   299.87405     -47645.456      1590.8143     -38109.947     -23.251276      1075071      
     70300   300.52682     -47568.421      1550.1144     -38056.317      3.9364364      1076861.3    
     70400   298.56062     -47522.248      1566.3943     -38045.956     -13.429552      1076801.8    
     70500   303.36614     -47682.628      1545.1704     -38100.244      15.562246      1074652.3    
     70600   299.19305     -47722.522      1515.7168     -38280.152      18.664962      1073552.8    
     70700   298.97698     -47776.246      1531.3902     -38323.927     -17.144317      1073720.9    
     70800   300.49938     -47748.568      1523.5416     -38263.765      22.290289      1073681.9    
     70900   304.49626     -47791.344      1548.7804     -38175.41      -34.49142       1074641.7    
     71000   301.04675     -47631.936      1561.8118     -38094.36      -18.560491      1076123.7    
     71100   305.66299     -47578.744      1497.6819     -37982.998     -14.955979      1077555.7    
     71200   303.67843     -47463.755      1578.8066     -37839.462      12.772345      1079528.2    
     71300   300.6391      -47337.13       1526.6451     -37845.521     -42.329876      1081485.6    
     71400   299.26703     -47437.952      1514.8251     -37994.514     -5.2772095      1080440.9    
     71500   298.61431     -47592.992      1532.4224     -38149.249     -6.4507385      1076555.3    
     71600   301.053       -47705.657      1585.0247     -38144.703      21.902544      1072306.2    
     71700   298.41621     -47698.313      1571.1012     -38221.14       47.041971      1070983      
     71800   297.04891     -47695.196      1501.5151     -38323.834      22.810444      1073626.8    
     71900   300.98785     -47748.944      1520.3253     -38254.415     -37.072203      1076574.1    
     72000   296.54777     -47480.177      1568.8614     -38054.745     -9.6486797      1077116.5    
     72100   299.9239      -47527.011      1590.9744     -37990.021      30.416197      1076314.2    
     72200   299.25978     -47491.162      1590.3761     -37972.365      41.113659      1076898.7    
     72300   301.87159     -47595.575      1528.0216     -38069.936     -20.440866      1078123.5    
     72400   296.48986     -47623.802      1586.5143     -38182.251     -44.0808        1077634.3    
     72500   298.11125     -47623.91       1529.7565     -38196.161      59.513099      1073914.7    
     72600   302.16789     -47711.365      1609.7703     -38096.128      22.638194      1072917.2    
     72700   303.80322     -47569.574      1592.7484     -37928.033      17.882379      1075417      
     72800   296.42685     -47406.5        1580.6835     -37972.45      -17.291383      1079565.5    
     72900   297.7023      -47508.397      1561.7014     -38059.538     -65.967117      1080129.2    
     73000   300.86035     -47656.327      1557.2911     -38128.211      9.056013       1075621.7    
     73100   299.5005      -47797.7        1518.9653     -38343.937      36.620964      1070742.2    
     73200   300.55453     -47924.769      1576.7054     -38385.34       45.645878      1069239.1    
     73300   294.24124     -47679.32       1508.5234     -38375.334      31.094215      1072032.7    
     73400   300.90969     -47686.646      1501.2723     -38213.241     -49.5203        1075362.6    
     73500   300.95463     -47575.216      1502.861      -38099.032     -22.478952      1076110.2    
     73600   302.16167     -47546.122      1506.5467     -38034.273      1.7300847      1075599.8    
     73700   302.07725     -47665.197      1590.996      -38071.135     -10.411084      1075260.7    
     73800   302.14808     -47753.91       1515.5875     -38233.381     -32.087458      1075046.1    
     73900   298.87665     -47765.007      1566.8978     -38279.839      6.3038163      1073721      
     74000   300.713       -47797.963      1586.8305     -38244.211     -7.001108       1073035.5    
     74100   302.04014     -47718.113      1518.1532     -38197.878      12.061973      1074593.9    
     74200   301.29938     -47632.841      1571.1915     -38079.193     -23.768831      1077334.7    
     74300   304.71943     -47552.299      1577.1394     -37902.094     -62.874715      1079670      
     74400   302.15914     -47451.149      1541.6029     -37904.311     -12.79279       1080024.1    
     74500   300.43928     -47489.149      1527.1662     -38002.313     -22.810921      1079674.5    
     74600   301.77153     -47660.611      1542.2998     -38123.345     -24.11715       1077459.8    
     74700   298.22388     -47648.122      1587.9791     -38159.167      49.904016      1074350.2    
     74800   298.08435     -47642.783      1535.5564     -38209.947      62.509443      1072928.5    
     74900   294.52436     -47637.606      1605.6475     -38228.996      28.860075      1074154      
     75000   296.38826     -47495.235      1482.4756     -38160.415     -16.203857      1076691.4    
     75100   300.82597     -47566.234      1498.7807     -38097.539     -20.950221      1077414.7    
     75200   298.00387     -47515.399      1546.3738     -38073.878      29.619692      1076341.7    
     75300   303.12569     -47577.946      1468.2568     -38078.847      35.472656      1075651      
     75400   295.48715     -47480.339      1517.6049     -38134.263     -1.9012789      1077905.7    
     75500   297.01017     -47565.79       1476.9292     -38220.04      -37.364456      1079221.6    
     75600   298.05548     -47533.155      1518.6206     -38118.02       26.362465      1076799.3    
     75700   301.69332     -47537.281      1533.1655     -38011.221      81.613446      1073854.8    
     75800   301.70696     -47605.983      1539.4629     -38073.265     -2.9592852      1075441.6    
     75900   297.80365     -47579.913      1515.513      -38174.557     -57.216343      1078107.1    
     76000   299.36456     -47640.038      1562.2072     -38146.634     -40.951454      1076884.3    
     76100   301.90088     -47626.031      1518.5249     -38109.113      34.561304      1074200.5    
     76200   300.1703      -47641.238      1577.2375     -38111.456      8.7651402      1074773.6    
     76300   298.27629     -47621.286      1591.9656     -38126.955     -32.971726      1076033      
     76400   302.81869     -47667.679      1548.2711     -38096.7       -38.81645       1075060.7    
     76500   301.03536     -47689.537      1599.8008     -38114.274      6.2366117      1073402.4    
     76600   298.55844     -47780.834      1610.4838     -38260.51      -21.199514      1073250.5    
     76700   301.80611     -47921.212      1620.087      -38305.243     -55.062017      1074530.8    
     76800   295.63932     -47668.437      1585.3948     -38250.539     -19.976004      1075717.7    
     76900   303.48862     -47609.102      1511.5375     -38057.107      7.0597957      1075375      
     77000   302.20723     -47590.206      1523.3823     -38060.314      24.895685      1074931.5    
     77100   298.69914     -47629.744      1577.4505     -38138.726     -11.437679      1076138.4    
     77200   297.96379     -47702.706      1597.1349     -38211.486     -62.719998      1076206.3    
     77300   297.34337     -47632.895      1561.5898     -38193.656      46.906635      1073512.1    
     77400   305.14469     -47671.285      1555.66       -38031.293      50.754731      1073344      
     77500   300.91995     -47534.979      1539.7352     -38022.839      30.45859       1077043.3    
     77600   294.61362     -47424.444      1531.9201     -38087.195     -35.55758       1080622.5    
     77700   296.6245      -47503.351      1547.1996     -38097.548     -31.61505       1079611      
     77800   301.5143      -47579.405      1611.4239     -37979.83       21.653158      1075685.3    
     77900   304.86462     -47659.681      1607.4652     -37975.303      28.935515      1075138.4    
     78000   300.73419     -47660.393      1551.6178     -38141.292     -51.568717      1077453.3    
     78100   296.5986      -47593.73       1552.8911     -38182.922     -7.2791924      1076271.4    
     78200   301.12031     -47682.319      1572.8802     -38131.726      22.020217      1073619.2    
     78300   302.47396     -47684.311      1559.6975     -38111.037      34.349628      1073186.4    
     78400   300.28003     -47666.678      1576.4223     -38134.805     -30.756939      1075523.8    
     78500   298.92605     -47666.032      1546.9383     -38199.515     -34.845092      1075903.8    
     78600   299.74015     -47721.095      1594.3905     -38185.557      13.893449      1073148.5    
     78700   301.92346     -47665.134      1557.9918     -38108.152      49.251607      1071755.9    
     78800   302.66083     -47738.214      1592.2227     -38127.465     -15.732348      1074026.7    
     78900   295.40189     -47586.603      1513.9817     -38246.409     -59.531576      1077434.2    
     79000   297.95969     -47670.098      1549.8651     -38226.256     -15.815116      1076346      
     79100   303.97584     -47700.419      1590.7528     -38056.301      21.99307       1072864.2    
     79200   302.38944     -47667.831      1572.0164     -38084.479      19.423624      1072796.9    
     79300   296.28443     -47607.522      1571.5676     -38186.36       38.433897      1074737.3    
     79400   296.55196     -47653.709      1571.4854     -38225.542     -17.874296      1075917.9    
     79500   297.66194     -47600.68       1558.9083     -38155.683     -7.5663451      1074669.8    
     79600   305.648       -47662.33       1561.0306     -38003.633      32.074057      1073204.4    
     79700   300.90978     -47589.769      1584.4731     -38033.161     -1.7733085      1075427.9    
     79800   296.42777     -47615.711      1498.4962     -38263.824     -36.10312       1077415.9    
     79900   299.67222     -47701.964      1527.8551     -38234.761     -20.521311      1075279.2    
     80000   299.49647     -47661.887      1603.4452     -38123.75       65.481558      1071485.2    
     80100   303.56657     -47695.577      1534.5713     -38118.483      51.547727      1071554.3    
     80200   301.27459     -47751.453      1540.0874     -38229.566     -81.270313      1076108.4    
     80300   297.1403      -47660.524      1549.3661     -38238.889     -80.919288      1077686.9    
     80400   303.62436     -47691.853      1565.7087     -38082.091      20.791034      1073842      
     80500   304.8452      -47705.603      1580.09       -38049.115      57.948771      1072004.9    
     80600   300.51639     -47627.204      1543.766      -38121.725     -16.232451      1074980.2    
     80700   298.18328     -47561.949      1518.5638     -38143.485     -20.04371       1077244.7    
     80800   301.8129      -47654.194      1566.985      -38091.147     -28.349859      1076933.3    
     80900   300.73438     -47517.157      1583.3784     -37966.29       66.314726      1075165.4    
     81000   302.2371      -47527.585      1608.5609     -37911.724     -18.75136       1076084.6    
     81100   298.94835     -47581.663      1566.3766     -38095.117     -16.593692      1076585.9    
     81200   298.74668     -47680.073      1580.9413     -38184.304     -22.665769      1075204.6    
     81300   299.78115     -47707.807      1589.4799     -38176.093      25.062041      1072728.2    
     81400   300.98998     -47752.294      1586.0514     -38191.983      26.632367      1072103      
     81500   298.48113     -47691.676      1507.9363     -38275.948     -3.482044       1074825.3    
     81600   295.45663     -47690.046      1582.4856     -38279.898     -53.304324      1076597.8    
     81700   296.24626     -47518.386      1582.9482     -38086.855      45.20761       1075035.9    
     81800   298.28796     -47500.859      1578.6664     -38019.519      76.618291      1073907.8    
     81900   296.92171     -47472.905      1553.416      -38053.011      15.233094      1075915.3    
     82000   296.00799     -47509.524      1551.9421     -38115.312     -37.040437      1077540.9    
     82100   302.20438     -47639.194      1549.3659     -38083.394     -14.639564      1075752.6    
     82200   299.91974     -47487.248      1562.7831     -37978.559      57.6925        1074352.1    
     82300   303.46708     -47565.808      1572.4081     -37953.513     -23.729766      1077223      
     82400   301.06309     -47561.745      1511.983      -38073.565     -78.254154      1080454.2    
     82500   296.30003     -47478.832      1498.1598     -38130.665     -2.4628269      1079008.4    
     82600   299.74539     -47513.233      1583.5684     -37988.378      39.135868      1075452.5    
     82700   304.40374     -47511.046      1547.9739     -37898.37       76.846064      1074709.8    
     82800   298.97218     -47472.757      1550.1094     -38001.846     -6.0557182      1077624.1    
     82900   297.00947     -47441.549      1543.9949     -38028.752     -47.60838       1078764.8    
     83000   302.68989     -47608.305      1573.3        -38015.709      5.3946509      1075828.5    
     83100   303.24659     -47622.141      1516.9284     -38071.167      45.058283      1074204.4    
     83200   298.80242     -47696.435      1538.0494     -38242.082     -30.409342      1075834.8    
     83300   298.64172     -47768.759      1584.0868     -38272.626     -50.452471      1074978.5    
     83400   300.83391     -47727.552      1535.6368     -38221.79       10.162357      1071902.8    
     83500   302.49092     -47766.735      1558.3849     -38194.325      53.557033      1070806.9    
     83600   295.84693     -47655.07       1522.3547     -38294.713      13.306266      1073567.8    
     83700   293.51375     -47775.434      1511.2995     -38487.946     -58.969901      1074878.2    
     83800   298.28915     -47840.325      1564.6787     -38372.94       26.144386      1071274.9    
     83900   301.52833     -47826.678      1550.569      -38287.586      69.059718      1069927.3    
     84000   296.51459     -47655.345      1546.4523     -38253.201      14.849984      1073755.1    
     84100   296.93534     -47530.006      1555.6769     -38107.491     -22.202884      1077242.4    
     84200   299.02083     -47462.405      1535.6006     -38004.715      19.14464       1077292.4    
     84300   301.11994     -47528.412      1550.1496     -38000.56      -15.748256      1077025.8    
     84400   298.89263     -47522.679      1527.6395     -38076.346     -4.1132505      1075710.4    
     84500   300.889       -47680.13       1532.8479     -38175.697      1.5267882      1073747.2    
     84600   298.76744     -47779.074      1549.2447     -38314.452      7.4286367      1071969.3    
     84700   294.25324     -47836.337      1561.09       -38479.466      18.988357      1071428.4    
     84800   294.62518     -47829.517      1586.3166     -38437.566      1.1002395      1071591.7    
     84900   297.66904     -47827.994      1576.4218     -38365.295     -33.75483       1071221.2    
     85000   301.06025     -47853.57       1562.8921     -38314.556      32.207028      1070086      
     85100   299.27456     -47786.71       1570.384      -38287.514      39.709215      1071240.1    
     85200   296.41037     -47718.493      1582.2422     -38283.32      -43.709223      1074297.1    
     85300   298.72735     -47651.003      1576.2953     -38160.392     -20.124408      1074903.4    
     85400   300.34336     -47599.617      1589.7696     -38052.719      38.36664       1073593.1    
     85500   301.46383     -47664.639      1568.1657     -38109.659     -24.566933      1074830.7    
     85600   298.84841     -47718.91       1591.9334     -38209.455     -53.459578      1075970.6    
     85700   298.60241     -47734.206      1586.6271     -38236.574      2.9494651      1075101.6    
     85800   299.46519     -47614.827      1580.6342     -38100.33       57.492749      1073801.6    
     85900   308.27144     -47703.461      1584.9645     -37951.326     -32.82019       1075674.6    
     86000   299.87496     -47484.958      1503.4847     -38036.754     -3.9150319      1078875.4    
     86100   298.95845     -47640.523      1594.3125     -38125.773     -82.479394      1077929.5    
     86200   303.43397     -47780.87       1579.4124     -38162.448     -12.883043      1072396.5    
     86300   299.47005     -47823.356      1538.5113     -38350.853      56.114776      1068596.1    
     86400   298.79552     -47907.612      1550.3377     -38441.154      19.804518      1069074.9    
     86500   296.53779     -47853.768      1610.874      -38386.588     -35.567701      1072154      
     86600   300.2039      -47731.687      1555.8233     -38222.429     -42.150501      1074765      
     86700   296.62077     -47559.691      1569.1292     -38132.058     -2.7810825      1075825.7    
     86800   298.91928     -47570.747      1586.7562     -38064.591      40.490096      1074765.9    
     86900   301.02819     -47546.345      1529.6819     -38041.39       45.793985      1074519.9    
     87000   300.81051     -47602.743      1508.0149     -38125.223     -5.935505       1076378      
     87100   297.40576     -47673.338      1552.8284     -38241.208     -70.696579      1077160.4    
     87200   299.74842     -47692.588      1565.5491     -38185.673     -6.0410169      1073993.4    
     87300   303.13339     -47691.559      1594.2547     -38066.258      59.700177      1072027.5    
     87400   302.06159     -47666.82       1557.3188     -38106.85      -12.464921      1074649.9    
     87500   297.17783     -47685.777      1510.9999     -38301.514     -62.500107      1076410.6    
     87600   298.62203     -47706.166      1546.1503     -38248.491     -18.132702      1074027.4    
     87700   303.20404     -47703.902      1525.2546     -38145.729      63.620072      1071119      
     87800   300.23889     -47655.457      1551.0501     -38150.046      45.054663      1072161.3    
     87900   297.17716     -47676.883      1548.9306     -38254.707     -32.373894      1075040.5    
     88000   295.75515     -47768.354      1546.7422     -38386.041     -73.381539      1075373.1    
     88100   298.46525     -47752.979      1587.5334     -38258.075      11.23163       1072271.1    
     88200   303.39913     -47771.451      1580.945      -38152.419      48.412989      1070403.1    
     88300   299.90749     -47690.132      1551.3409     -38193.211     -4.3315423      1073287.3    
     88400   295.96806     -47589.87       1511.4681     -38237.19      -26.571261      1076724.9    
     88500   300.26649     -47654.727      1565.3865     -38134.248     -59.300288      1076947.6    
     88600   304.31595     -47602.016      1532.0387     -38007.601      43.480339      1073763.6    
     88700   304.61726     -47751.121      1561.2208     -38119.541      25.269683      1072253.9    
     88800   304.80105     -47836.767      1517.2965     -38244.242     -19.776764      1073285.8    
     88900   298.26797     -47729.136      1527.6168     -38299.374     -36.355219      1075113.3    
     89000   298.56049     -47689.509      1574.1079     -38205.507     -23.766456      1074805.2    
     89100   301.30782     -47660.464      1594.428      -38083.356      32.099734      1073791.8    
     89200   300.10167     -47606.342      1583.3661     -38072.251      25.460238      1076564.8    
     89300   299.55671     -47601.615      1593.144      -38072.183     -60.242814      1079809.1    
     89400   297.7119      -47454.56       1568.6375     -37998.51      -34.065537      1079961.4    
     89500   302.96056     -47435.488      1511.844      -37897.176      24.640496      1077743.2    
     89600   308.07087     -47537.479      1589.7493     -37785.873      29.48975       1077037.8    
     89700   301.00288     -47476.327      1565.3244     -37936.401     -19.625518      1080089.5    
     89800   297.41607     -47438.627      1512.7919     -38046.26      -7.3935155      1081546.9    
     89900   301.70328     -47550.458      1517.7935     -38039.507     -22.288307      1079159.5    
     90000   299.6478      -47522.067      1545.073      -38038.293      58.039619      1075733.2    
     90100   303.4899      -47696.039      1501.4081     -38154.139      13.781681      1074926.7    
     90200   294.75478     -47642.403      1543.7243     -38289.611      17.717507      1074838.8    
     90300   298.58728     -47726.988      1528.2869     -38288.097      25.744678      1073829.8    
     90400   299.46718     -47769.005      1590.744      -38244.345      33.772154      1074091.2    
     90500   300.74706     -47618.863      1555.9302     -38095.109     -14.542111      1076081      
     90600   301.91801     -47500.968      1523.1947     -37978.926      11.469486      1078248.2    
     90700   298.32313     -47483.484      1574.7032     -38005.175     -26.217638      1079447      
     90800   296.84685     -47488.921      1574.986      -38049.441      7.7956687      1077761.4    
     90900   299.18979     -47643.339      1543.2095     -38173.563      29.100821      1075565.3    
     91000   299.58313     -47821.464      1587.6967     -38296.78      -10.852131      1074445.9    
     91100   295.33433     -47661.021      1576.0829     -38260.516      36.11947       1074356.2    
     91200   297.66623     -47612.074      1587.4724     -38138.399     -13.674744      1076018.3    
     91300   299.6577      -47538.138      1544.8513     -38054.324     -54.483153      1078179.9    
     91400   299.23858     -47453.703      1516.0101     -38009.834     -2.9895227      1077970.1    
     91500   301.14801     -47465.301      1541.6203     -37945.235      25.871818      1076835.4    
     91600   303.2772      -47536.043      1529.3057     -37971.882      54.413679      1076615.4    
     91700   297.3664      -47561.007      1537.9174     -38144.831     -10.450569      1077779.8    
     91800   301.3158      -47721.29       1577.1701     -38161.228     -53.668571      1076283.7    
     91900   302.22907     -47759.33       1588.7608     -38163.481      20.570963      1073248.9    
     92000   297.61154     -47697.734      1558.3595     -38254.621      64.644487      1072564.6    
     92100   296.37749     -47786.439      1541.9282     -38392.452     -29.479748      1073857.2    
     92200   297.12774     -47807.866      1587.839      -38348.091     -6.8149538      1074267.3    
     92300   301.78277     -47800.387      1539.7242     -38265.399     -19.185684      1074802.1    
     92400   302.23369     -47817.675      1602.6965     -38207.769     -34.495749      1075198.2    
     92500   302.43781     -47762.125      1597.5893     -38151.918     -24.435306      1075768.6    
     92600   302.7777      -47719.294      1605.42       -38092.252     -24.130878      1076733.4    
     92700   301.37523     -47536.12       1608.6991     -37942.955      16.892018      1077485.8    
     92800   298.85012     -47328.918      1533.5004     -37877.85       40.150752      1078835.5    
     92900   299.07113     -47407.928      1557.3181     -37927.187     -11.729011      1079860.2    
     93000   299.30942     -47604.828      1544.2545     -38130.837     -38.733226      1077809.3    
     93100   301.84257     -47750.384      1594.9491     -38158.587      14.44785       1073144.3    
     93200   299.90984     -47724.45       1563.2124     -38215.595      64.914931      1070719.5    
     93300   297.48164     -47845.351      1594.4067     -38369.632     -0.49162397     1072286.4    
     93400   295.77776     -47807.785      1597.9078     -38373.707     -40.472503      1075262.6    
     93500   296.84501     -47635.415      1506.5775     -38264.392      2.0911987      1075961.3    
     93600   299.85292     -47669.689      1540.9465     -38184.607      45.768493      1074624.5    
     93700   302.06424     -47745.793      1573.6183     -38169.454      23.490377      1074182.2    
     93800   299.40347     -47662.509      1550.5253     -38179.756     -22.460807      1076325.1    
     93900   297.27007     -47594.653      1537.6606     -38181.285     -25.854288      1076779      
     94000   303.20008     -47724.538      1539.6525     -38152.072      9.2083004      1074591      
     94100   298.59703     -47629.124      1580.2945     -38137.967      53.261289      1073358.5    
     94200   301.04966     -47715.26       1587.033      -38152.386      11.50663       1074617.3    
     94300   298.12202     -47664.497      1547.1369     -38219.083     -32.855803      1077007.6    
     94400   297.55296     -47701.836      1593.7776     -38224.857     -57.524327      1076974.2    
     94500   303.87692     -47695.748      1592.3325     -38052.67       30.012049      1075241.8    
     94600   304.97899     -47665.456      1559.2698     -38026.243      9.8532208      1075930.2    
     94700   296.37227     -47515.218      1535.2935     -38128.003     -46.939199      1077940.2    
     94800   299.83691     -47650.65       1536.843      -38170.096     -57.147198      1076219.8    
     94900   302.66399     -47777.898      1609.852      -38149.436      42.347996      1071772.1    
     95000   301.32948     -47869.192      1559.8968     -38326.041      27.36636       1071163.1    
     95100   299.96325     -47946.687      1547.8654     -38451.763     -28.341154      1072886.8    
     95200   299.38684     -47833.177      1523.3653     -38378.024      1.0908355      1073354.1    
     95300   299.60316     -47718.097      1550.3889     -38230.189      16.644973      1073893.7    
     95400   300.88904     -47712.766      1553.5755     -38187.605     -19.711793      1075859.5    
     95500   298.68462     -47623.52       1518.4874     -38191.85      -12.398412      1076682.7    
     95600   296.2755      -47704.925      1589.1114     -38266.456      16.754923      1074492.3    
     95700   296.82336     -47822.868      1552.7737     -38406.223      56.149967      1072195.3    
     95800   296.24812     -47851.54       1552.9048     -38450.003      16.65127       1071882.5    
     95900   300.04316     -47872.748      1582.0389     -38341.534      28.026262      1071592      
     96000   300.73656     -47739.546      1591.2454     -38180.755      3.1681776      1073371      
     96100   300.9684      -47698.154      1559.1557     -38165.31      -47.215017      1075959.1    
     96200   299.05489     -47622.01       1581.0107     -38118.007     -36.945045      1076413      
     96300   304.03801     -47632.446      1575.4432     -38001.991     -16.337515      1075068.7    
     96400   300.74347     -47498.899      1566.2354     -37964.935      46.625206      1073654.3    
     96500   296.54489     -47659.089      1609.4134     -38193.181      16.20735       1073694.6    
     96600   300.36608     -47762.796      1531.9088     -38273.157     -24.83133       1073994.4    
     96700   298.92305     -47707.018      1526.6967     -38260.821      7.7185722      1073597      
     96800   301.89112     -47702.022      1535.5148     -38168.373      32.493745      1073630.1    
     96900   300.92913     -47576.066      1523.0048     -38080.413      13.201739      1075551.4    
     97000   302.26444     -47640.58       1603.8186     -38028.736     -37.125304      1077077.1    
     97100   299.95999     -47386.196      1552.7818     -37886.442      17.858386      1077371      
     97200   304.02051     -47497.383      1611.5268     -37831.307      9.388625       1077369.1    
     97300   298.51993     -47509.076      1605.4367     -37994.819     -15.548613      1078402.4    
     97400   299.7999      -47520.056      1533.7613     -38043.564      9.9782204      1078035.4    
     97500   301.07733     -47585.937      1573.2078     -38036.155      10.265877      1075096.8    
     97600   304.01937     -47708.577      1529.6275     -38124.431      29.382333      1071918.5    
     97700   296.47909     -47671.661      1553.2361     -38263.674      36.613357      1072230.2    
     97800   299.18608     -47731.351      1559.2814     -38245.601     -32.116406      1075433.3    
     97900   296.95467     -47580.254      1565.3528     -38147.55      -33.16704       1077654.8    
     98000   296.44971     -47494.489      1586.6878     -38053.828      3.212334       1076217.3    
     98100   301.70564     -47616.696      1589.9398     -38033.536      3.6340593      1073932.6    
     98200   303.05995     -47686.949      1523.9718     -38133.876      27.276373      1073108.1    
     98300   300.55289     -47737.409      1543.564      -38231.165     -30.049645      1074075.3    
     98400   299.40503     -47707.067      1574.4507     -38200.347     -32.025455      1074622.7    
     98500   300.63194     -47645.773      1528.013      -38152.986      6.0626423      1074427.5    
     98600   297.45769     -47606.821      1568.8802     -38157.263      7.4440782      1074583.8    
     98700   300.78078     -47670.034      1549.549      -38151.768     -11.5845        1073871.4    
     98800   302.2221      -47694.949      1579.6308     -38108.415      13.240475      1073629.5    
     98900   300.60012     -47604.092      1549.3985     -38090.762     -5.521238       1075293.4    
     99000   295.22332     -47488.816      1541.1743     -38126.16      -1.8669563      1077131.8    
     99100   300.13958     -47606.372      1567.6035     -38087.038     -16.294615      1076618.6    
     99200   300.24844     -47555.147      1602.4295     -37998.104      28.556404      1074063.6    
     99300   301.62095     -47567.76       1608.5905     -37968.193      14.417565      1074041.4    
     99400   299.60761     -47536.412      1468.9982     -38129.778      13.191133      1076464.4    
     99500   296.57462     -47580.838      1532.4715     -38191.085     -43.727797      1077636.3    
     99600   299.95907     -47585.034      1531.0088     -38107.077      19.943413      1074911.3    
     99700   302.97714     -47630.55       1561.2495     -38042.394      10.811931      1073318.9    
     99800   299.95716     -47616.538      1598.865      -38070.776     -2.0556816      1075968.3    
     99900   292.61546     -47386.159      1568.0448     -38065.724     -2.7953808      1078959.7    
    100000   301.53063     -47453.315      1612.3065     -37852.425     -12.122276      1078730.3    
    100100   302.41712     -47396.143      1579.4662     -37804.607      25.410126      1078467.9    
    100200   301.12282     -47460.856      1564.6225     -37918.454     -32.137086      1080101.7    
    100300   298.06683     -47510.756      1609.4117     -38004.529     -56.919166      1079676.9    
    100400   302.78946     -47568.973      1573.4065     -37973.632      27.4415        1076380.8    
    100500   302.18684     -47545.087      1601.7607     -37937.357      39.880182      1075159.9    
    100600   303.37584     -47620.591      1535.2357     -38047.886     -46.394458      1077746.7    
    100700   298.1248      -47637.583      1578.8569     -38160.375     -66.019988      1078928.1    
    100800   301.83641     -47646.765      1501.405      -38148.675      20.611407      1075339.1    
    100900   302.33872     -47698.397      1626.1505     -38062.254      106.39619      1071798.6    
    101000   298.74462     -47560.197      1621.9459     -38023.479      53.342946      1074478.4    
    101100   293.51242     -47407.48       1603.5049     -38027.822     -32.946139      1079662.4    
    101200   301.53681     -47468.237      1595.6908     -37883.799     -79.94084       1080651.5    
    101300   304.11658     -47454.117      1593.8922     -37803.13      -8.3447086      1077812.1    
    101400   304.36728     -47553.143      1580.2504     -37909.157      28.79576       1075962.3    
    101500   301.37031     -47611.062      1576.4568     -38050.269      31.26361       1075366.7    
    101600   298.09473     -47562.71       1564.8975     -38100.257     -6.9281145      1076271.8    
    101700   298.89093     -47563.712      1571.8822     -38073.181     -18.1316        1076983.6    
    101800   304.05274     -47595.189      1593.6733     -37946.113      7.2727747      1076899      
    101900   303.4679      -47520.667      1603.612      -37877.147     -8.3275384      1078388.4    
    102000   299.41089     -47444.698      1558.5396     -37953.734     -13.289272      1079355.6    
    102100   294.40815     -47494.871      1569.4702     -38125.516     -4.8058183      1078137.9    
    102200   297.99911     -47674.707      1638.2465     -38141.439      28.404709      1074089      
    102300   301.87201     -47727.189      1570.9032     -38158.658      70.295989      1072143.3    
    102400   299.43933     -47771.556      1558.952      -38279.426     -9.0659969      1074830.5    
    102500   295.74965     -47675.727      1551.0846     -38289.217     -55.361854      1077924.7    
    102600   301.12024     -47619.723      1553.1241     -38088.888     -25.486569      1077127.9    
    102700   303.57435     -47638.219      1557.942      -38037.548      25.043245      1075936      
    102800   300.63865     -47616.678      1569.0318     -38082.695      2.6290106      1075822.7    
    102900   300.16494     -47683.561      1580.2228     -38150.937     -6.7499391      1075798.5    
    103000   296.36873     -47690.637      1589.2215     -38249.589     -1.9507461      1075246.7    
    103100   296.1339      -47771.698      1571.7853     -38354.307     -23.356031      1074711      
    103200   296.12977     -47724.882      1544.8743     -38334.511      17.759769      1073449      
    103300   301.713       -47721.361      1578.0736     -38149.872      44.587083      1072769.2    
    103400   300.2671      -47713.325      1636.3641     -38121.853     -13.569797      1075103.2    
    103500   300.5004      -47602.279      1528.709      -38112.281     -42.900366      1078382.8    
    103600   299.91542     -47428.367      1504.1912     -37978.384     -15.263161      1079759.6    
    103700   305.86771     -47526.892      1557.0493     -37866.355     -53.747439      1079291.7    
    103800   302.99957     -47496.997      1529.8205     -37939.675      23.48365       1077118.7    
    103900   300.14587     -47601.612      1588.8891     -38060.826      20.086012      1075924.9    
    104000   299.2085      -47607.742      1549.3502     -38131.329     -16.668764      1075659.6    
    104100   299.48047     -47669.423      1556.2614     -38178.893      9.486546       1075179.4    
    104200   296.5837      -47666.294      1555.4692     -38253.303      23.665537      1074484.7    
    104300   294.75196     -47741.306      1584.1753     -38348.138      7.1121439      1073535.1    
    104400   293.24893     -47765.148      1562.4122     -38433.563      14.25183       1072444.9    
    104500   299.98818     -47858.229      1558.0809     -38352.429      10.398094      1071085.3    
    104600   301.63613     -47748.707      1523.2711     -38234.058      48.613952      1070683.7    
    104700   301.90216     -47725.351      1542.2931     -38184.631     -5.0634575      1073809      
    104800   300.76784     -47568.862      1520.1015     -38080.386     -31.809775      1077320.9    
    104900   304.31105     -47498.931      1564.9085     -37871.776     -41.498748      1078673.5    
    105000   303.14556     -47467.419      1529.4498     -37906.601      9.2243859      1078719.9    
    105100   303.23194     -47581.977      1538.8638     -38009.456     -65.370872      1079000.4    
    105200   295.75692     -47462.351      1560.7121     -38066.021     -4.4974583      1077276.2    
    105300   298.07687     -47582.763      1620.5884     -38065.093      34.535114      1074853.8    
    105400   303.5613      -47668.474      1536.237      -38089.854      31.92556       1075145.2    
    105500   294.0798      -47535.013      1549.0091     -38194.819     -7.8301257      1078030.7    
    105600   298.68184     -47628.711      1618.3595     -38097.242     -29.888033      1078706      
    105700   301.63014     -47494.057      1516.3412     -37986.496      63.850985      1076033.8    
    105800   297.80334     -47542.633      1634.8722     -38017.926      61.154767      1075606.9    
    105900   297.91015     -47535.507      1554.6901     -38088.153     -28.282109      1078155.8    
    106000   298.91335     -47525.082      1560.218      -38045.621     -28.307324      1078156.1    
    106100   304.50004     -47538.84       1639.0776     -37832.509      21.065004      1075782.5    
    106200   302.60426     -47523.142      1618.9518     -37887.163      44.968805      1075933.4    
    106300   301.2509      -47536.619      1530.8117     -38024.635     -50.064834      1078756      
    106400   298.3278      -47464.813      1503.5591     -38057.525     -24.429952      1078534.2    
    106500   302.68271     -47547.996      1561.4536     -37967.436      2.2274497      1075588      
    106600   307.03186     -47654.09       1547.9283     -37971.832      10.659859      1073949.1    
    106700   299.19153     -47678.727      1583.3865     -38168.727     -31.471871      1074817.3    
    106800   298.99696     -47648.246      1548.1424     -38178.645     -4.9862285      1074672.5    
    106900   297.68999     -47584.853      1572.3937     -38125.627      42.073795      1074029.1    
    107000   300.08945     -47616.113      1575.0529     -38090.659      32.680676      1074411.9    
    107100   301.70059     -47606.426      1596.3777     -38016.962     -29.054384      1076305.8    
    107200   297.9508      -47452.337      1605.3702     -37953.226     -10.768093      1077543.4    
    107300   299.05672     -47467.467      1587.3996     -37957.026     -34.19622       1076873.3    
    107400   301.92135     -47593.802      1559.6141     -38035.253      25.611694      1074598      
    107500   296.54392     -47600.502      1593.8978     -38150.136     -35.997652      1075140.1    
    107600   295.95525     -47617.728      1573.9017     -38202.953      11.150608      1074885      
    107700   299.56864     -47546.944      1529.713      -38080.628      65.463238      1074842.3    
    107800   301.48839     -47452.743      1541.4122     -37923.866      27.353959      1077185.2    
    107900   300.85058     -47404.054      1504.7525     -37928.735     -32.595395      1080109      
    108000   299.73231     -47396.854      1487.6084     -37968.306     -32.036709      1080077      
    108100   304.66277     -47686.01       1540.8576     -38073.587     -31.569959      1076811.4    
    108200   298.60951     -47699.554      1543.8591     -38244.502      28.333525      1072973.1    
    108300   303.63608     -47827.733      1510.8163     -38272.553      27.240701      1071355.7    
    108400   297.99917     -47733.363      1547.3536     -38290.987     -19.608313      1073494.7    
    108500   298.82739     -47647.381      1541.1311     -38189.285     -22.380473      1075774.5    
    108600   299.25968     -47479.274      1530.0288     -38020.826      39.56308       1076405.3    
    108700   303.05787     -47590.507      1546.6062     -38014.856     -39.656336      1077235.1    
    108800   299.51008     -47485.329      1525.5148     -38024.762     -7.3485935      1076854.1    
    108900   301.9797      -47570.298      1518.821      -38050.996     -3.3865034      1076005.3    
    109000   301.97353     -47717.29       1505.9604     -38211.012     -2.589689       1074832.7    
    109100   294.11901     -47693.043      1618.867      -38281.952      24.595337      1073689.4    
    109200   299.17769     -47756.14       1581.176      -38248.718      3.8279789      1071873.2    
    109300   301.27168     -47662.368      1575.0039     -38105.641      28.622235      1072218.5    
    109400   303.99882     -47587.665      1520.185      -38013.505      17.972771      1074830      
    109500   296.79391     -47436.473      1540.9574     -38032.424      3.8035924      1078209.4    
    109600   298.94879     -47569.413      1605.3713     -38043.86      -33.936381      1078123      
    109700   305.50153     -47672.054      1519.6877     -38058.58       38.254405      1075474.7    
    109800   296.37601     -47634.284      1545.1931     -38237.071      12.871305      1074556.1    
    109900   299.61005     -47802.518      1579.9651     -38284.852     -38.220055      1073022.9    
    110000   298.86643     -47651.875      1543.8661     -38190.009      49.587629      1071875.6    
    110100   302.52627     -47775.503      1627.4478     -38133.094     -23.38615       1073303.1    
    110200   302.00681     -47692.603      1572.8568     -38118.547     -38.753574      1075442.3    
    110300   299.00722     -47608.211      1584.1365     -38102.345     -14.451083      1075432.6    
    110400   301.91778     -47657.314      1573.421      -38085.052      12.637926      1073874.3    
    110500   302.8827      -47717.898      1557.7258     -38135.768      9.0026643      1073421.1    
    110600   297.25557     -47681.089      1591.1722     -38214.594     -20.994941      1074181.3    
    110700   298.85304     -47701.913      1555.3111     -38228.957     -12.768096      1074040.2    
    110800   302.06517     -47677.216      1589.6536     -38084.817     -9.0588757      1074187.9    
    110900   301.39318     -47610.141      1644.4468     -37980.753     -16.289868      1074758.7    
    111000   301.69969     -47648.29       1612.5693     -38042.658     -6.6548019      1074896.6    
    111100   297.9515      -47615.234      1548.6324     -38172.841     -17.123398      1075668.8    
    111200   298.84614     -47649.758      1523.4559     -38208.839     -27.010732      1074746.4    
    111300   296.32514     -47655.146      1618.5021     -38185.972      12.923505      1073589      
    111400   304.70125     -47760.333      1538.7326     -38149.016     -7.4774805      1073963.2    
    111500   300.7559      -47633.841      1517.7732     -38148.01       13.842994      1074723.5    
    111600   299.54847     -47665.737      1584.9741     -38144.694      11.20694       1074447.2    
    111700   298.38835     -47611.644      1557.2352     -38149.075      32.240125      1074266.7    
    111800   299.64362     -47640.053      1572.2807     -38129.182     -6.7159283      1074746.5    
    111900   301.63009     -47612.972      1573.2243     -38048.529      9.3921578      1075104.1    
    112000   301.16921     -47569.544      1602.8744     -37987.662      4.4317191      1075599.4    
    112100   302.61511     -47577.436      1576.7121     -37983.408     -15.823774      1076653.1    
    112200   293.91871     -47449.1        1571.9778     -38090.204      18.321525      1077619.8    
    112300   300.21859     -47653.417      1531.2569     -38168.337     -54.648244      1076952.9    
    112400   299.97289     -47630.332      1532.8819     -38150.137      53.558283      1073799.1    
    112500   299.78673     -47569.015      1591.0069     -38035.627      58.803247      1073721.9    
    112600   299.36958     -47463.496      1579.6199     -37952.546      34.769251      1076887.1    
    112700   299.49071     -47520.86       1603.6014     -37982.72      -62.381075      1080348.7    
    112800   296.03891     -47474.529      1593.7689     -38037.671     -17.510223      1079466.2    
    112900   299.61603     -47505.038      1579.1356     -37988.043      24.341224      1076127.6    
    113000   302.68844     -47496.832      1558.3042     -37919.27       87.71932       1074503.5    
    113100   300.36855     -47623.404      1596.6007     -38069.007     -53.523859      1076837.7    
    113200   295.41557     -47560.313      1583.9259     -38149.813     -25.940306      1077314.5    
    113300   301.09283     -47595.413      1517.1605     -38101.268      44.691604      1075495.5    
    113400   300.40573     -47605.996      1581.3842     -38065.831      33.17214       1074877.2    
    113500   295.70871     -47527.663      1583.6507     -38109.672      24.354735      1075407.2    
    113600   296.70071     -47629.494      1560.6313     -38208.24       4.1703674      1075664.2    
    113700   297.12578     -47657.153      1550.1246     -38235.144      28.518587      1074733.6    
    113800   302.24552     -47746.943      1596.422      -38142.998      28.939508      1074425      
    113900   301.20039     -47589.793      1586.0378     -38023.92       3.7406974      1076204.1    
    114000   303.40941     -47515.074      1551.0035     -37925.711     -19.841807      1079125.4    
    114100   303.20797     -47391.644      1577.8288     -37780.793     -15.529566      1080947.4    
    114200   305.47599     -47394.118      1661.2697     -37639.738     -27.548978      1080521.9    
    114300   303.60461     -47411.082      1639.2618     -37728.289     -5.8770533      1079777.3    
    114400   300.68685     -47500.012      1583.8883     -37949.895     -25.681013      1077846.6    
    114500   298.55981     -47539.002      1549.1802     -38079.946      64.237873      1074052.6    
    114600   299.36631     -47661.3        1554.7361     -38175.32       22.53751       1073284.9    
    114700   299.00397     -47639.025      1540.9517     -38176.43      -13.070443      1074813.3    
    114800   301.35882     -47550.446      1522.7621     -38043.652     -0.93935751     1076099.1    
    114900   300.17441     -47538.991      1611.4402     -37974.898     -28.367134      1077015.7    
    115000   302.14995     -47561.337      1569.5958     -37986.749     -16.804477      1076988.6    
    115100   296.45177     -47609.41       1547.5769     -38207.806     -21.251624      1075922.4    
    115200   297.14328     -47686.646      1569.0109     -38245.288      29.068784      1073458.8    
    115300   300.79        -47726.765      1573.0583     -38184.745      5.640037       1072929.5    
    115400   299.81615     -47620.072      1568.6439     -38108.267      2.8282633      1074464.3    
    115500   302.76994     -47650.995      1598.6225     -38030.955      9.7671751      1076177.1    
    115600   303.57083     -47521.91       1550.8356     -37928.439     -13.040198      1077426.6    
    115700   302.83032     -47499.379      1580.4254     -37895.937      23.935046      1078591.5    
    115800   298.07259     -47509.417      1580.7565     -38031.692     -47.512997      1079851.8    
    115900   297.40341     -47525.55       1560.4887     -38085.822     -34.6844        1078876.5    
    116000   298.91634     -47496.369      1579.1585     -37997.889      50.966983      1075915.9    
    116100   298.35655     -47393.33       1626.7916     -37862.047      71.012967      1075452.9    
    116200   306.70012     -47473.128      1544.3095     -37803.278      26.339023      1078372.6    
    116300   298.31006     -47369.128      1565.9754     -37899.893     -35.321846      1082709.5    
    116400   299.75604     -47490.473      1561.5956     -37987.309     -77.86508       1082333.8    
    116500   298.79302     -47489.589      1587.6621     -37985.873      24.060621      1078125.4    
    116600   298.41964     -47502.017      1564.3169     -38031.537      56.439882      1076140.6    
    116700   298.17694     -47589.623      1528.5723     -38161.318     -21.441956      1077098      
    116800   296.05217     -47571.676      1560.1494     -38168.086     -33.133439      1077323.8    
    116900   303.82366     -47540.515      1513.6497     -37977.532      2.0411014      1075811.9    
    117000   301.05071     -47437.187      1497.4486     -37963.869      23.267476      1075470.8    
    117100   301.45081     -47612.201      1593.2567     -38032.475     -45.00405       1075817.9    
    117200   297.57434     -47565.911      1586.7661     -38095.377      6.7201063      1076797.8    
    117300   297.43878     -47597.523      1548.0919     -38169.255     -0.6809457      1077099.2    
    117400   298.38592     -47628.563      1506.5959     -38216.697     -5.8892188      1075159.6    
    117500   298.60317     -47683.483      1555.7704     -38216.688      53.456938      1072311.6    
    117600   303.29591     -47731.46       1489.7951     -38206.313      44.162888      1071788.5    
    117700   299.27395     -47682.847      1557.4765     -38196.574      11.199167      1073895.5    
    117800   302.80506     -47600.484      1511.0557     -38067.08      -0.71544738     1076725.7    
    117900   303.13995     -47499.975      1507.9886     -37960.766      1.2254359      1078673.8    
    118000   300.53674     -47427.467      1552.4449     -37912.77      -9.4581609      1079214.3    
    118100   304.19666     -47482.618      1513.6594     -37909.743     -27.717119      1079165.4    
    118200   296.5115      -47450.409      1493.3276     -38101.472     -19.286702      1077811.2    
    118300   298.57716     -47582.554      1515.3706     -38156.847      40.728662      1074969.2    
    118400   298.51793     -47605.338      1583.2666     -38113.305      18.728599      1074307.5    
    118500   302.65589     -47655.11       1537.4062     -38099.308      3.6332893      1075702.9    
    118600   301.79613     -47572.09       1551.1467     -38025.326     -21.739335      1077793.1    
    118700   302.54787     -47469.98       1569.646      -37884.8        2.1316882      1078603.8    
    118800   302.38017     -47479.494      1579.5134     -37888.889      0.46671069     1078825.8    
    118900   301.21556     -47562.27       1540.7947     -38041.239     -58.496246      1077657.6    
    119000   302.71347     -47679.736      1547.7175     -38112.097      30.278492      1072285.9    
    119100   302.70123     -47800.152      1589.8209     -38190.734      18.553042      1070158.8    
    119200   299.13757     -47725.094      1518.4031     -38281.508      14.543602      1071893.8    
    119300   297.62689     -47712.082      1535.3461     -38291.576     -20.599852      1074441.4    
    119400   298.65362     -47655.35       1539.1835     -38203.805     -14.638273      1075147.1    
    119500   304.23802     -47615.243      1523.1442     -38031.787      19.38603       1075040.1    
    119600   301.92022     -47610.138      1582.3572     -38028.876     -17.486496      1075754.7    
    119700   302.08796     -47642.286      1540.7366     -38098.2        2.8786353      1075579.9    
    119800   300.65313     -47734.785      1575.9928     -38193.457     -31.431566      1074722      
    119900   300.57465     -47801.717      1555.874      -38282.586      26.434941      1072321.9    
    120000   297.6084      -47818.789      1569.7943     -38364.325      14.925705      1070958.2    
    120100   297.41918     -47895.969      1536.4177     -38479.894     -11.587861      1070921.2    
    120200   296.16512     -47872.756      1513.0848     -38513.239     -3.9473847      1071292      
    120300   299.80558     -47802.219      1540.3153     -38319.022     -15.781571      1070816      
    120400   304.10688     -47823.689      1530.2842     -38236.568      6.547747       1071212.9    
    120500   298.55071     -47743.101      1585.4997     -38247.966     -9.5834167      1074382.2    
    120600   299.22496     -47686.615      1521.3495     -38237.767     -19.38711       1076200.2    
    120700   299.17691     -47553.926      1543.5132     -38084.187      26.175077      1075025.9    
    120800   302.26096     -47593.972      1578.4257     -38007.614      47.837178      1074305.4    
    120900   299.62809     -47546.843      1552.0847     -38056.579     -17.515163      1077715.7    
    121000   303.56935     -47607.123      1511.0944     -38053.432     -94.861131      1080096.5    
    121100   300.79047     -47416.884      1583.5484     -37864.361     -4.659703       1078550.1    
    121200   306.52364     -47587.51       1627.5957     -37839.049     -18.73231       1076646      
    121300   301.12187     -47469.626      1498.51       -37993.362      16.786088      1077013.3    
    121400   296.75006     -47479.979      1555.0051     -38063.044     -9.4752988      1077665.4    
    121500   300.70042     -47613.465      1583.8365     -38063.04      -8.9087819      1076582.8    
    121600   301.85769     -47642.668      1568.1345     -38077.285      20.130781      1074857      
    121700   297.08038     -47654.732      1570.2971     -38213.753     -28.580996      1074679.3    
    121800   297.57577     -47739.168      1575.1225     -38280.24       20.732634      1073635.5    
    121900   297.1658      -47679.191      1547.0272     -38259.219      39.977302      1073111.6    
    122000   300.86098     -47754.49       1559.1878     -38224.46       12.210193      1073785.1    
    122100   298.05339     -47677.921      1608.0075     -38173.454     -2.6746926      1074635.7    
    122200   300.62718     -47626.988      1533.2847     -38129.055      4.6773772      1074778      
    122300   302.32017     -47617.703      1517.8634     -38090.339     -3.5269485      1074849.4    
    122400   302.7596      -47676.383      1536.6313     -38118.608     -13.859392      1075144.9    
    122500   296.98071     -47678.364      1561.4444     -38248.879      8.0389957      1075414.3    
    122600   301.14381     -47792.869      1549.6875     -38264.846     -44.973426      1075569.3    
    122700   302.77921     -47719.21       1589.3335     -38108.214      17.266326      1075465.4    
    122800   299.62886     -47524.639      1571.1559     -38015.284      22.727188      1077522.5    
    122900   300.95081     -47553.675      1534.5836     -38045.869     -25.687071      1079815.6    
    123000   302.60032     -47589.118      1481.6512     -38090.544     -61.743868      1079716.7    
    123100   298.91882     -47562.51       1536.2085     -38106.914      54.30863       1075783.5    
    123200   304.31492     -47767.862      1531.6805     -38173.832      24.545965      1073022      
    123300   297.61812     -47765.126      1581.8047     -38298.393      17.300489      1073221.6    
    123400   296.8546      -47708.501      1528.0482     -38315.754     -5.9439871      1074291.3    
    123500   300.70027     -47708.979      1567.8539     -38174.54       5.3475114      1074725.5    
    123600   297.51822     -47560.193      1591.0972     -38086.815      15.739542      1075530.8    
    123700   304.25864     -47712.524      1556.7963     -38094.87      -47.401653      1076378.9    
    123800   300.77035     -47688.179      1599.3043     -38120.434     -33.67337       1075948.4    
    123900   301.14991     -47795.103      1567.1694     -38249.436      5.887104       1073781.2    
    124000   299.95577     -47902.251      1563.8503     -38391.541     -20.174533      1072465.4    
    124100   299.6318      -47925.909      1596.8894     -38390.743      31.001626      1070774.6    
    124200   294.46175     -47753.516      1604.6042     -38347.608      41.224358      1072042.7    
    124300   299.78686     -47704.007      1572.0974     -38189.524      1.5541334      1075196.2    
    124400   297.91301     -47551.524      1598.1173     -38060.666     -49.377735      1079037.5    
    124500   302.46916     -47555.097      1539.3159     -38002.332     -52.524486      1079044.6    
    124600   303.92367     -47555.797      1523.4602     -37980.353      10.181945      1076071.4    
    124700   300.51068     -47619.203      1547.9543     -38109.687      19.353067      1074644.2    
    124800   299.58155     -47736.978      1561.6707     -38238.361     -32.329188      1074937.1    
    124900   300.25696     -47717.938      1527.4154     -38235.683     -5.5186389      1074096.4    
    125000   301.02513     -47763.705      1570.5708     -38217.944      20.325953      1073476      
    125100   296.38763     -47670.175      1547.664      -38270.183      12.434591      1075354.4    
    125200   296.51789     -47731.386      1544.1097     -38331.497     -46.869965      1076985.1    
    125300   297.94947     -47716.006      1580.0409     -38242.259      13.742477      1075482.3    
    125400   300.41745     -47620.829      1542.7363     -38119.001      55.361616      1074036.4    
    125500   299.52231     -47627.095      1572.2544     -38119.465      28.607867      1075373.7    
    125600   298.79119     -47535.13       1531.7294     -38087.394     -23.266511      1078070.3    
    125700   300.41164     -47403.642      1545.3613     -37899.343      25.755128      1079278.6    
    125800   299.86043     -47402.971      1600.8998     -37857.737     -0.35473895     1079742.7    
    125900   300.23526     -47517.26       1599.2195     -37963.776     -12.143648      1079497.8    
    126000   297.46793     -47530.389      1602.4404     -38047          3.0385515      1078574.6    
    126100   299.7626      -47607.279      1601.435      -38064.101      8.2224966      1076688.1    
    126200   300.09538     -47632.222      1626.0508     -38055.612      4.1695993      1076070      
    126300   296.37613     -47570.745      1581.8377     -38136.884      17.49362       1076874.4    
    126400   293.69302     -47660.581      1630.7904     -38248.852     -18.599981      1077907.6    
    126500   300.96212     -47727.131      1580.2131     -38173.396     -19.019235      1076699.1    
    126600   299.05715     -47620.466      1628.331      -38069.083      45.217808      1074940.9    
    126700   301.2182      -47565.94       1550.5983     -38035.036      53.107131      1075065.6    
    126800   299.61739     -47585.002      1578.6494     -38068.457     -15.041807      1077663.1    
    126900   298.17654     -47574.537      1539.6187     -38135.196     -53.606539      1079317.7    
    127000   302.47843     -47625.079      1572.2905     -38039.094     -28.341645      1077788.5    
    127100   301.64351     -47524.254      1577.8301     -37954.85       65.269065      1074647.5    
    127200   299.96752     -47607.436      1583.4311     -38076.833      28.756579      1075275.4    
    127300   297.23592     -47543.729      1523.8901     -38145.037     -16.263665      1078219.7    
    127400   297.26119     -47469.587      1524.1468     -38069.969     -61.45814       1078512.6    
    127500   302.7683      -47572.018      1573.7225     -37976.922      10.728378      1075067.6    
    127600   303.42637     -47594.766      1557.1268     -37998.831      63.662715      1072720.7    
    127700   299.97844     -47641.875      1546.0426     -38148.372      37.454876      1073907.5    
    127800   299.49319     -47642.532      1527.6063     -38180.321     -45.577238      1076849.1    
    127900   299.0417      -47604.603      1522.3007     -38159.659     -21.216778      1076040.4    
    128000   301.46024     -47581.577      1522.8991     -38071.959      80.029148      1072265.3    
    128100   306.98089     -47754.978      1529.2482     -38092.75      -3.9742584      1071924.7    
    128200   296.25005     -47655.702      1543.4559     -38263.564     -54.910378      1074856.2    
    128300   296.6138      -47598.307      1481.062      -38258.925      20.805276      1074350.6    
    128400   300.27507     -47667.679      1542.5751     -38169.785      47.449927      1072931.9    
    128500   298.41055     -47632.16       1588.5115     -38137.726     -0.06081999     1073898.7    
    128600   297.92166     -47539.192      1530.1079     -38116.115      34.451614      1074514.7    
    128700   299.43371     -47638.415      1578.4541     -38126.932     -8.5068673      1074276.4    
    128800   299.78025     -47675.521      1577.1892     -38156.122     -5.2582492      1073642.9    
    128900   298.17932     -47764.473      1539.6328     -38325.044     -40.448252      1073081.2    
    129000   295.89811     -47804.162      1540.9836     -38423.82       13.24068       1071473.6    
    129100   298.26335     -47776.262      1538.6466     -38335.593      54.766438      1069465      
    129200   300.8347      -47747.71       1521.2034     -38256.36       65.841942      1070489.1    
    129300   302.70988     -47736.314      1498.5625     -38217.926     -16.322529      1074122.5    
    129400   299.03266     -47562.401      1558.8865     -38081.111     -17.036216      1076293.3    
    129500   304.45528     -47521.608      1518.3613     -37937.179     -6.7284692      1076315.4    
    129600   299.87176     -47498.944      1567.6937     -37986.616      38.836055      1075926.9    
    129700   298.76809     -47572.649      1549.6882     -38107.567      12.468686      1076278.6    
    129800   298.3118      -47602.847      1542.0622     -38157.479     -20.486091      1076435.2    
    129900   298.49186     -47643.081      1577.3943     -38157.611      6.5183243      1075306.9    
    130000   306.15645     -47707.345      1567.1429     -38029.064     -17.565594      1074591.5    
    130100   308.27741     -47632.374      1538.8209     -37926.224     -3.6895998      1075895.6    
    130200   299.03022     -47457.99       1507.14       -38028.511      14.928767      1078210.7    
    130300   301.1782      -47682.442      1596.911      -38106.285     -46.161506      1077787.1    
    130400   300.58914     -47705.764      1571.7336     -38170.391     -1.3530986      1074560.5    
    130500   298.49442     -47837.994      1580.0285     -38349.822      23.360531      1071568.3    
    130600   298.84626     -47893.437      1523.0754     -38452.896      28.190455      1070911.7    
    130700   298.89523     -47867.319      1559.7916     -38388.764     -49.452399      1072833.2    
    130800   298.17476     -47687.961      1532.2749     -38256.011      20.285875      1074566.4    
    130900   299.80777     -47650.861      1545.0195     -38162.903     -39.900169      1075390.1    
    131000   303.22232     -47681.4        1550.0632     -38097.934      8.2560153      1073657.6    
    131100   297.35066     -47534.838      1581.6941     -38075.302      71.2113        1072653.5    
    131200   295.67581     -47620.77       1571.7825     -38215.518      3.6495805      1074435.2    
    131300   298.06167     -47768.176      1541.7875     -38329.71      -55.891321      1074989      
    131400   301.49936     -47757.12       1508.1808     -38261.184      18.910599      1072358.9    
    131500   304.00148     -47798.499      1552.0043     -38192.45       39.349091      1070851.9    
    131600   300.12267     -47768.291      1549.132      -38267.877      1.2646801      1072743.6    
    131700   297.08477     -47835.47       1521.8745     -38442.798     -39.690331      1074520.7    
    131800   297.30928     -47800.643      1543.9592     -38379.938     -28.381697      1072692.8    
    131900   302.66742     -47894.442      1580.2971     -38295.444      61.674455      1069558.7    
    132000   297.995       -47766.275      1587.7214     -38283.641      52.180331      1071462.7    
    132100   296.70409     -47530.244      1496.2716     -38173.261     -4.5905988      1076866.8    
    132200   296.42341     -47457.372      1565.3874     -38038.709     -5.4611772      1079366.2    
    132300   298.86843     -47513.577      1617.0347     -37978.489     -29.804787      1078351.2    
    132400   300.65559     -47542.491      1614.6559     -37962.434      28.226405      1076919.3    
    132500   298.79639     -47519.941      1527.9616     -38075.835      0.91575048     1077689.7    
    132600   296.27367     -47546.367      1526.5053     -38170.553     -35.789982      1077872      
    132700   304.12816     -47673.828      1496.0787     -38120.349      19.046576      1074563.9    
    132800   301.56241     -47709.652      1588.9058     -38131.321      24.431837      1072858.4    
    132900   299.57565     -47715.051      1557.9811     -38220.281      6.1677998      1074892.4    
    133000   301.11246     -47699.41       1523.1922     -38198.713     -44.873388      1077525.3    
    133100   298.49933     -47607.811      1573.2021     -38126.335     -21.657914      1076615.4    
    133200   303.98137     -47644.574      1555.9388     -38035.123      31.012061      1074402.4    
    133300   302.09403     -47656.173      1565.657      -38087.006      24.692508      1074555.5    
    133400   294.95779     -47629.476      1585.9819     -38229.048     -27.146555      1076702.3    
    133500   297.5988      -47616.034      1538.4085     -38193.21      -40.788192      1076414.1    
    133600   300.01836     -47627.604      1573.1853     -38105.9        47.64114       1073591.9    
    133700   300.84015     -47614.963      1561.5604     -38083.113      32.36172       1073709.4    
    133800   298.77621     -47558.505      1545.3246     -38097.571     -17.514419      1076372.6    
    133900   300.50629     -47527.831      1541.4061     -38024.98      -11.339278      1077686.3    
    134000   303.50753     -47476.382      1564.2884     -37871.135     -18.304466      1078152.3    
    134100   301.76561     -47484.502      1604.9033     -37884.79      -64.914946      1078737.9    
    134200   298.76855     -47483.04       1551.9141     -38015.719     -1.0670218      1077648.7    
    134300   300.71064     -47582.604      1515.4711     -38100.274     -18.443137      1076068.2    
    134400   298.14411     -47605.908      1604.0724     -38102.972     -0.33508603     1074568.8    
    134500   300.39715     -47589.426      1554.3603     -38076.512      9.8899965      1074738      
    134600   301.46384     -47589.588      1562.0572     -38040.717     -24.615318      1075958.3    
    134700   300.75054     -47450.564      1552.7374     -37929.91       29.652119      1076890.8    
    134800   301.15851     -47375.629      1545.5623     -37851.342     -8.411609       1077929.5    
    134900   302.0396      -47409.153      1509.9808     -37897.104     -2.7298473      1078797.7    
    135000   298.27312     -47506.049      1537.0949     -38066.673     -46.686014      1078468.4    
    135100   301.14077     -47594.967      1510.208      -38106.504      13.459784      1074943.5    
    135200   301.43927     -47728.807      1583.718      -38158.925      19.048536      1072580.2    
    135300   297.60271     -47703.521      1553.3247     -38265.677      37.514519      1072741      
    135400   299.11697     -47743.75       1535.9559     -38283.156      5.0191756      1073930.5    
    135500   296.08329     -47639.446      1574.7041     -38220.477     -29.21918       1075804.3    
    135600   299.71035     -47616.648      1572.9269     -38103.363     -11.103629      1076318.5    
    135700   302.00975     -47616.414      1569.6618     -38045.475      1.9576906      1075975.8    
    135800   298.25047     -47572.65       1612.839      -38058.13       28.063884      1076022.1    
    135900   304.76085     -47693.753      1521.7163     -38097.873     -62.31003       1077294.4    
    136000   300.22307     -47664.174      1517.8947     -38192.338     -13.164731      1075808.4    
    136100   297.02343     -47655.197      1550.9093     -38235.115      33.918334      1073334.1    
    136200   299.61793     -47696.544      1597.0451     -38161.589      42.190275      1073253.2    
    136300   300.23903     -47511.001      1534.4239     -38022.213      30.417397      1075498.1    
    136400   300.99009     -47461.317      1528.6066     -37958.447     -18.323092      1078305.6    
    136500   301.43758     -47430.21       1514.3635     -37929.728     -24.104783      1079183.9    
    136600   301.2236      -47425.495      1512.4902     -37932.556      1.9045153      1078305.1    
    136700   295.04144     -47512.927      1543.399      -38152.866     -21.803626      1075766.2    
    136800   298.22543     -47726.597      1589.4474     -38236.132      5.9294658      1071857.1    
    136900   296.55135     -47733.092      1649.0582     -38227.368      64.765918      1070027.9    
    137000   302.27708     -47761.641      1494.6314     -38258.65       43.252026      1072331.9    
    137100   296.41309     -47675.54       1485.1429     -38337.394     -30.019806      1075255.5    
    137200   295.956       -47647.658      1558.169      -38248.597      9.2248087      1074498.6    
    137300   303.35612     -47697.092      1564.8675     -38095.278      30.608555      1073512.4    
    137400   304.46392     -47730.958      1565.537      -38099.125     -13.728517      1074208.8    
    137500   302.16242     -47718.918      1527.4989     -38186.097     -35.212094      1075155.4    
    137600   299.88388     -47686.315      1532.1155     -38209.244     -7.8090735      1075051.8    
    137700   303.50594     -47687.091      1599.0968     -38047.078     -5.6774762      1074846.2    
    137800   304.65286     -47607.72       1586.4363     -37949.981      9.1403304      1076024.1    
    137900   302.99243     -47536.377      1555.7214     -37953.344     -2.5926645      1078598      
    138000   297.67976     -47366.973      1554.9281     -37925.484     -18.893576      1081094.4    
    138100   305.52905     -47438.953      1570.5733     -37773.864     -35.679499      1079549.3    
    138200   306.73028     -47470.74       1579.8868     -37764.513      42.259958      1077065.2    
    138300   298.64771     -47414.229      1563.7358     -37938.288      57.281255      1077326.1    
    138400   302.10986     -47540.849      1523.906      -38013.014     -43.816209      1078397      
    138500   297.9143      -47581.063      1588.8161     -38099.473     -4.5775161      1077804.5    
    138600   296.59478     -47555.121      1601.3838     -38095.921      29.743334      1076986.6    
    138700   300.64948     -47540.71       1583.0241     -37992.447     -3.3319388      1077364.3    
    138800   302.82426     -47444.074      1556.4915     -37864.726      16.264273      1078088.4    
    138900   302.06977     -47423.886      1538.6437     -37882.375     -33.544959      1079961      
    139000   296.66872     -47478.647      1591.2189     -38027.653     -52.210122      1078968.9    
    139100   299.55599     -47685.285      1559.9142     -38189.102     -5.4859993      1073843.1    
    139200   299.18765     -47761.878      1580.1218     -38255.246      92.089837      1069923      
    139300   299.6193      -47725.007      1517.1129     -38269.948      33.477845      1072130.6    
    139400   301.39256     -47715.61       1517.1022     -38213.582     -39.668407      1075975      
    139500   299.59114     -47608.202      1577.255      -38093.748     -65.132313      1077381.2    
    139600   300.80181     -47511.534      1549.3305     -37992.929      31.136623      1075165.7    
    139700   300.60371     -47596.848      1626.4092     -38006.412      45.527313      1073969.8    
    139800   293.00876     -47521.078      1600.3489     -38157.919     -3.6930893      1075620.2    
    139900   297.1213      -47596.953      1541.0706     -38184.117     -13.597132      1075511.6    
    140000   301.57657     -47675.066      1551.4508     -38133.815      31.633404      1073698.8    
    140100   298.63823     -47597.996      1557.0685     -38128.974      9.5263746      1073829.8    
    140200   298.43665     -47565.293      1508.2152     -38150.465     -30.903679      1074387      
    140300   299.59772     -47662.839      1565.2246     -38160.24       16.257157      1073653.9    
    140400   301.49207     -47660.672      1522.2955     -38150.815     -9.3118156      1073358.4    
    140500   299.06675     -47619.955      1550.537      -38146.111      49.154882      1073190.2    
    140600   298.75555     -47614.037      1550.8797     -38148.095      2.9862479      1074626.1    
    140700   298.63114     -47572.164      1554.4501     -38105.947     -6.242543       1074633.5    
    140800   302.56817     -47591.947      1567.0287     -38008.846     -2.0282742      1074338.2    
    140900   300.81249     -47540.098      1599.8698     -37970.67       5.5353037      1075654.6    
    141000   301.70923     -47614.081      1533.8259     -38086.94      -30.671565      1077531.9    
    141100   299.08928     -47654.55       1528.2721     -38202.374     -25.421722      1077741.9    
    141200   297.77934     -47644.263      1609.2414     -38145.823     -32.17665       1075594.5    
    141300   301.58612     -47617.211      1572.4471     -38054.71       34.0185        1074031.1    
    141400   298.29246     -47519.933      1529.0716     -38088.068      39.266566      1075304.4    
    141500   298.11464     -47569.087      1542.8889     -38128.116     -22.449795      1077605.5    
    141600   297.99999     -47542.587      1572.557      -38074.985     -24.292875      1078204      
    141700   303.49006     -47492.76       1559.1387     -37893.126      52.978116      1075861.8    
    141800   304.69423     -47598.243      1591.5106     -37934.334      12.968652      1074689.6    
    141900   301.30926     -47575.007      1540.7442     -38051.544      10.592021      1075511      
    142000   299.16863     -47572.218      1525.7461     -38120.466     -19.840722      1076406      
    142100   301.12098     -47718.299      1553.8372     -38186.731     -21.041682      1075043.2    
    142200   297.69349     -47722.623      1550.5023     -38285.197     -14.29433       1072619.5    
    142300   296.66158     -47794.678      1526.2075     -38408.885      50.809121      1070683.5    
    142400   296.47667     -47911.677      1504.9629     -38552.027     -4.1230369      1070706.9    
    142500   295.24057     -47772.208      1500.88       -38449.39       39.282482      1071152      
    142600   298.38595     -47758.289      1546.7861     -38306.232      6.4609647      1072191.2    
    142700   299.42587     -47798.118      1595.2036     -38270.093     -15.325102      1073160.6    
    142800   302.8603      -47796.939      1545.3879     -38227.74      -24.500838      1073685.5    
    142900   300.53576     -47671.227      1522.6534     -38186.348      1.6648574      1074114.6    
    143000   298.14811     -47558.571      1540.2302     -38119.372      33.326263      1074460.6    
    143100   299.4664      -47572.364      1549.7095     -38088.76       26.764172      1075192.2    
    143200   296.98734     -47531.754      1530.4008     -38133.137      6.2035154      1076829.1    
    143300   298.84753     -47635.902      1488.0325     -38230.371     -24.118251      1076853.9    
    143400   300.10299     -47723.384      1521.4918     -38251.132      63.715118      1072858.9    
    143500   299.21025     -47817.791      1543.1274     -38347.554      42.991009      1070872      
    143600   296.89991     -47867.561      1529.6431     -38472.018      14.803724      1071649.4    
    143700   297.42524     -47783.195      1506.1334     -38397.244      1.4185916      1073417      
    143800   296.75844     -47678.717      1560.2219     -38256.343      13.815454      1075565.7    
    143900   300.34244     -47698.103      1541.7791     -38199.22      -39.347278      1076839.6    
    144000   296.78302     -47534.104      1560.4606     -38110.84       59.442205      1075708.1    
    144100   302.34342     -47660.876      1569.8997     -38080.859      35.942405      1074634.9    
    144200   297.76152     -47633.409      1512.6311     -38232.051     -18.211364      1076127      
    144300   298.24179     -47708.242      1525.1447     -38281.646     -49.275601      1075834.1    
    144400   299.68813     -47689.101      1531.7412     -38217.59       19.284834      1072933      
    144500   300.98215     -47756.589      1567.0338     -38215.502      66.926632      1070164.5    
    144600   299.1746      -47717.433      1519.0296     -38272.239      43.756623      1071397.2    
    144700   299.37937     -47755.78       1540.6831     -38283.508     -43.740191      1074626.7    
    144800   300.85833     -47611.361      1555.751      -38084.838      3.1647774      1075839.6    
    144900   300.80365     -47575.846      1587.9508     -38018.572     -9.0181266      1075984.9    
    145000   300.77862     -47644.828      1599.8712     -38076.297     -31.477844      1076267.6    
    145100   298.88065     -47674.904      1609.5939     -38146.934     -46.843534      1075609.2    
    145200   298.75259     -47635.646      1585.7332     -38134.929      34.759802      1073037.7    
    145300   300.46859     -47586.138      1551.5299     -38074.161      50.08163       1072357.1    
    145400   299.99862     -47592.091      1631.8846     -38012.211      9.0842523      1074700.8    
    145500   299.80462     -47545.743      1596.1077     -38006.78      -50.893843      1077332.1    
    145600   299.88011     -47533.985      1578.5253     -38010.604     -18.778231      1078192.2    
    145700   296.06725     -47444.646      1588.58       -38012.226     -0.32271708     1076790.8    
    145800   302.38919     -47609.78       1587.1893     -38011.261      5.6167217      1074331.8    
    145900   298.10981     -47658.825      1639.5563     -38121.314      37.08071       1072918.9    
    146000   297.36671     -47671.683      1554.1808     -38239.235      13.737099      1073975.6    
    146100   297.99791     -47655.507      1546.4089     -38214.109     -18.884365      1074987.1    
    146200   299.03762     -47602.314      1600.1827     -38079.596     -2.6742509      1075042.6    
    146300   297.13834     -47489.844      1584.8088     -38032.819      11.236815      1075702.9    
    146400   302.69908     -47599.794      1536.9331     -38043.321      18.667419      1076098.4    
    146500   296.76856     -47467.726      1511.2714     -38094.035     -8.4992306      1077533.4    
    146600   297.66752     -47546.77       1588.0532     -38072.48      -14.57785       1077365.2    
    146700   304.07142     -47512.855      1559.3773     -37897.58       8.7082647      1075992.6    
    146800   302.88616     -47438.463      1520.9037     -37893.063      57.025864      1075110.4    
    146900   299.34444     -47535.379      1579.3721     -38025.343     -31.793539      1075827.5    
    147000   300.52161     -47534.297      1497.0562     -38075.39       6.5368604      1075582      
    147100   300.45063     -47613.387      1574.8831     -38078.533     -17.700827      1075322.7    
    147200   300.8044      -47686.354      1596.1963     -38120.814     -36.932297      1074677.7    
    147300   298.92689     -47755.978      1542.285      -38294.091     -11.292257      1073200.9    
    147400   298.82695     -47830.578      1539.6775     -38373.947      12.741153      1070976.7    
    147500   301.86932     -47831.572      1507.0482     -38326.967      52.029552      1069824.4    
    147600   297.91903     -47674.934      1539.3672     -38242.667     -2.8182926      1072065      
    147700   297.82258     -47471.528      1480.231      -38100.953      11.040549      1075098.2    
    147800   298.26029     -47488.656      1545.362      -38041.353     -30.975413      1076806.9    
    147900   301.02551     -47585.848      1590.0886     -38020.558     -38.49251       1076268.5    
    148000   302.87287     -47612.506      1572.3278     -38016.034      0.92050611     1074193.7    
    148100   301.14552     -47658.453      1537.1676     -38142.905      23.564728      1073351.3    
    148200   299.02404     -47731.779      1535.5588     -38274.045     -6.0659607      1073961.2    
    148300   297.11005     -47605.792      1472.4396     -38261.885      23.083777      1074427.6    
    148400   299.35473     -47602.774      1516.5609     -38155.277      16.130587      1074656.5    
    148500   298.30992     -47510.428      1542.1262     -38065.046      42.282677      1076335.1    
    148600   301.35808     -47571.12       1522.073      -38065.034     -67.734031      1079006.3    
    148700   300.27779     -47544.668      1558.491      -38030.786     -30.875719      1079074.4    
    148800   302.26461     -47566.258      1588.6105     -37969.618     -9.2035366      1076508.7    
    148900   304.59994     -47649.556      1557.8536     -38021.802      9.5953133      1074946      
    149000   298.23185     -47686.817      1557.5069     -38228.122     -13.666385      1075516.5    
    149100   299.44913     -47747.589      1591.5508     -38222.601     -51.628186      1075308.3    
    149200   299.74778     -47599.083      1556.3938     -38101.339      56.357104      1073711.6    
    149300   301.60691     -47614.708      1606.6639     -38017.44       8.2659309      1075650.6    
    149400   302.67329     -47504.986      1489.5719     -37996.557     -52.305586      1080034.4    
    149500   301.53552     -47423.029      1514.029      -37920.287     -26.610864      1080308.3    
    149600   307.65144     -47478.769      1565.8253     -37762.199      34.84732       1076337.6    
    149700   304.6698      -47516.578      1569.0261     -37875.801      22.134764      1075400.8    
    149800   300.65733     -47562.558      1562.7196     -38034.391     -6.5248913      1076371.2    
    149900   299.22549     -47596.886      1546.0951     -38123.278     -35.154619      1075746.9    
    150000   298.96758     -47664.004      1549.1724     -38194.152      16.671343      1073557.1    
    150100   299.3344      -47703.714      1546.3557     -38226.961      6.2707104      1072461.9    
    150200   300.60533     -47703.476      1551.9553     -38187.452      34.81408       1071952.9    
    150300   300.69595     -47678.545      1561.9627     -38150.113      16.412252      1072730.9    
    150400   298.66801     -47582.452      1538.0572     -38131.652      5.6521638      1074566.5    
    150500   298.48074     -47511.336      1534.9194     -38068.636     -8.8467482      1075491.9    
    150600   302.91928     -47574.387      1533.2061     -38015.807      18.85726       1074781.1    
    150700   301.61188     -47595.581      1530.7111     -38074.133     -12.063898      1074531.6    
    150800   298.23747     -47675.19       1548.6244     -38225.229     -4.8640409      1073990.8    
    150900   298.14371     -47715.571      1557.3538     -38259.365      13.188768      1072896.5    
    151000   302.41708     -47745.059      1558.6688     -38174.321     -11.197389      1072361.5    
    151100   299.62367     -47526.517      1553.5605     -38034.895      43.250591      1073958.6    
    151200   300.9282      -47404.254      1555.7033     -37875.928      14.432776      1078066.3    
    151300   304.44871     -47316.644      1584.5907     -37666.16      -30.402288      1081837.8    
    151400   301.17179     -47281.7        1627.8477     -37674.775     -65.936267      1083333.1    
    151500   300.18763     -47293.241      1577.3187     -37762.919     -12.973898      1080778.8    
    151600   303.36962     -47512.291      1554.6518     -37920.335      37.647025      1076028.7    
    151700   299.52007     -47615.833      1618.7516     -38061.765      40.273226      1073166.3    
    151800   301.83289     -47775.164      1604.7634     -38173.809      6.7585806      1073692.4    
    151900   298.05923     -47650.602      1555.3564     -38198.631     -25.054759      1075851.5    
    152000   298.39703     -47504.45       1552.4905     -38046.396      0.29419098     1077381.1    
    152100   299.98726     -47498.204      1584.0906     -37966.419     -32.1483        1077132.1    
    152200   300.44645     -47545.634      1607.4138     -37978.36       4.741426       1075198.5    
    152300   299.94079     -47622.65       1587.1226     -38089.064     -2.1896619      1073601.3    
    152400   302.79484     -47754.287      1517.4336     -38214.776      4.636048       1072449.7    
    152500   300.05815     -47726.898      1545.0757     -38232.25       32.376278      1071612.3    
    152600   300.49277     -47727.943      1544.0363     -38222.819      13.289663      1071852.6    
    152700   303.60516     -47838.161      1563.5753     -38231.041     -31.081663      1071932.3    
    152800   301.16166     -47824.393      1543.1697     -38302.415     -6.6754224      1072133.8    
    152900   296.05771     -47783.645      1508.3629     -38431.695     -10.380314      1072215      
    153000   293.95968     -47726.262      1545.2277     -38393.031      16.850764      1070791.1    
    153100   301.02838     -47764.98       1545.4398     -38244.263      51.978833      1069791.5    
    153200   297.58096     -47676.623      1558.8747     -38233.806      22.865176      1072271.5    
    153300   296.85086     -47701.306      1590.6053     -38246.101     -30.122357      1074444.4    
    153400   300.36755     -47662.837      1547.4652     -38157.602     -8.2023234      1074707      
    153500   301.69877     -47541.375      1565.0378     -37983.299      40.351462      1073672      
    153600   303.33786     -47561.109      1497.7264     -38026.92       23.654932      1074201.5    
    153700   296.77795     -47505.612      1541.4862     -38101.457      22.371062      1076412.9    
    153800   299.22694     -47538.661      1539.6007     -38071.509     -36.637818      1077949.6    
    153900   300.45248     -47593.675      1595.6643     -38037.991     -39.452783      1076695.9    
    154000   297.81014     -47619.992      1690.331      -38039.646      21.561944      1073614.9    
    154100   299.6827      -47620.713      1601.6038     -38079.483      57.577096      1072306.1    
    154200   297.12727     -47563.987      1568.0001     -38124.063      48.149145      1073832.7    
    154300   299.46356     -47611.595      1546.4673     -38131.308     -46.259748      1076233.9    
    154400   302.43329     -47653.405      1576.4434     -38064.464     -29.902844      1075425      
    154500   305.03872     -47632.469      1617.7641     -37933.18       6.0497982      1073354      
    154600   305.08695     -47564.432      1541.052      -37940.577      35.339064      1074507.5    
    154700   297.76957     -47593.355      1562.7682     -38141.646     -72.822802      1077872.6    
    154800   300.4386      -47607.347      1514.2835     -38133.412     -26.505929      1076756.8    
    154900   299.25349     -47547.997      1602.7496     -38016.994      82.610868      1072820.8    
    155000   302.70033     -47608.436      1604.8755     -37983.988      31.707427      1072529.7    
    155100   295.46761     -47530.868      1575.5444     -38127.37      -5.9513076      1076000.5    
    155200   298.33196     -47615.658      1558.0676     -38153.75      -91.126322      1077542      
    155300   300.04397     -47582.868      1562.4896     -38071.182      30.550826      1074003.3    
    155400   302.78851     -47640.878      1575.166      -38043.803      57.510729      1072162.5    
    155500   299.76195     -47628.624      1533.0416     -38153.857     -3.000884       1074421.9    
    155600   292.73686     -47523.748      1585.3922     -38182.75      -33.43929       1077165.3    
    155700   301.38934     -47594.652      1606.0333     -38003.778     -31.992884      1077341.1    
    155800   300.98117     -47533.421      1573.9085     -37985.486      0.40936928     1076578.4    
    155900   302.26715     -47662.818      1591.8979     -38062.824      2.1909252      1075938.6    
    156000   296.51741     -47583.903      1558.2618     -38169.876      29.519446      1075486.9    
    156100   298.39439     -47731.948      1615.2521     -38211.203     -17.585976      1074991.7    
    156200   300.8734      -47631.478      1537.39       -38122.917      65.00047       1073889.6    
    156300   301.61126     -47588.116      1622.1889     -37975.208      23.231992      1075307.2    
    156400   300.62704     -47563.308      1583.4688     -38015.195     -22.274121      1077874.3    
    156500   300.29027     -47597.288      1538.7409     -38102.825     -38.024826      1078834.4    
    156600   295.83667     -47600.257      1537.2519     -38225.274      8.6388513      1076048.6    
    156700   297.43099     -47850.126      1554.322      -38415.834     -3.4237264      1072223      
    156800   295.89014     -47814.872      1594.342      -38381.382      73.788691      1070280.5    
    156900   297.95127     -47719.908      1561.3329     -38264.821      34.065116      1073103      
    157000   299.97535     -47681.083      1556.2361     -38177.468     -34.385642      1077084.6    
    157100   299.38423     -47619.108      1588.3959     -38098.994     -49.794693      1078012.3    
    157200   300.50323     -47577.447      1590.7096     -38025.373      31.721106      1075210.3    
    157300   300.05641     -47561.41       1575.8682     -38036.015      39.504144      1074378      
    157400   294.98976     -47581.419      1578.0585     -38188.068      5.8906027      1076279.1    
    157500   296.49692     -47654.047      1541.311      -38257.512     -31.941306      1077652.5    
    157600   301.94146     -47593.616      1574.0147     -38020.133     -19.597727      1076853.9    
    157700   302.87054     -47609.983      1606.4054     -37979.495      4.6563518      1075781.4    
    157800   298.52473     -47618.104      1647.7996     -38061.357     -1.8856068      1075997.3    
    157900   295.31168     -47572.69       1594.2501     -38154.617      10.117711      1076306.8    
    158000   296.19837     -47587.717      1573.9175     -38166.486     -6.1313883      1075318.6    
    158100   300.94922     -47673.542      1646.1269     -38054.235      39.119421      1073232.3    
    158200   304.8829      -47615.731      1566.0703     -37972.264      33.219296      1074562.5    
    158300   296.25363     -47540.807      1583.9991     -38108.03      -41.564614      1079043.8    
    158400   293.22762     -47543.72       1592.0267     -38183.085     -64.879235      1079445.4    
    158500   297.81926     -47574.037      1582.8667     -38100.913      51.704554      1074417.9    
    158600   303.84737     -47701.178      1557.6107     -38093.605      46.732046      1072629.5    
    158700   299.74959     -47663.845      1557.3484     -38165.099     -20.633528      1075368.4    
    158800   297.11742     -47594.265      1563.6018     -38159.001     -11.313701      1078328.9    
    158900   302.11097     -47636.599      1537.5465     -38095.093     -53.312149      1079040.2    
    159000   302.55059     -47614.266      1562.8256     -38035.834      2.0994763      1076349.2    
    159100   303.5274      -47686.788      1570.3547     -38074.949      3.1965762      1074807.3    
    159200   296.02375     -47654.34       1580.7888     -38230.863      20.118606      1074667.2    
    159300   298.147       -47684.126      1539.9015     -38245.285      3.0680769      1074622.9    
    159400   299.82423     -47636.719      1518.0699     -38175.274     -2.2032212      1074964.5    
    159500   301.54679     -47651.56       1530.8414     -38131.707      28.793302      1074630.4    
    159600   301.01868     -47696.142      1570.4171     -38150.705      4.7211284      1074441.7    
    159700   298.70101     -47640.497      1549.0469     -38177.833      4.9909291      1075176.6    
    159800   297.24667     -47584.755      1551.6948     -38157.973     -14.128533      1075656.7    
    159900   300.96709     -47541.318      1549.7117     -38017.953      32.510479      1074656.2    
    160000   304.77006     -47602.351      1570.5037     -37957.44       31.149163      1075053.3    
    160100   298.44297     -47480.259      1505.2915     -38068.187     -2.4404135      1078475.2    
    160200   296.79261     -47490.804      1490.3737     -38137.374     -20.716986      1080141.1    
    160300   298.7809      -47522.374      1553.4136     -38053.227     -15.712927      1078991      
    160400   303.30414     -47422.019      1547.1775     -37839.272      76.450068      1076882.6    
    160500   298.16381     -47416.746      1598.3024     -37919.059      15.131993      1078305.6    
    160600   299.03501     -47491.027      1544.5029     -38024.059     -52.899514      1081181.9    
    160700   297.9407      -47452.637      1561.1591     -37998.004     -16.482534      1080122.8    
    160800   305.07316     -47546.834      1560.3663     -37904.03       62.300105      1076191.1    
    160900   299.73435     -47421.324      1532.5859     -37947.744      29.551823      1076799.1    
    161000   295.46335     -47491.268      1540.664      -38122.764      2.7584585      1078399.8    
    161100   302.15013     -47661.846      1550.1378     -38106.712     -63.167774      1077573      
    161200   303.52105     -47596.573      1540.4516     -38014.805      56.282173      1075372.7    
    161300   300.07546     -47566.899      1584.6764     -38032.192      15.532613      1076406.8    
    161400   296.27155     -47604.019      1516.3093     -38238.457     -36.95652       1078892.5    
    161500   298.11916     -47632.883      1510.3627     -38224.319     -26.844537      1077570.3    
    161600   298.17133     -47602.722      1573.7246     -38129.413      27.149574      1074554.4    
    161700   299.1304      -47551.968      1536.1814     -38090.794      46.218038      1073557      
    161800   299.10851     -47616.874      1607.304      -38085.156     -0.68050707     1075583.9    
    161900   300.85704     -47703.549      1592.0051     -38140.806     -67.915691      1077156.5    
    162000   298.37783     -47715.569      1561.212      -38249.301     -47.78507       1075512.7    
    162100   297.78969     -47778.165      1611.2137     -38277.478      32.602699      1072078.6    
    162200   301.31566     -47817.886      1561.0542     -38273.944      32.543029      1071111.5    
    162300   301.7414      -47812.883      1579.6159     -38239.099     -22.774859      1072746      
    162400   300.22331     -47704.016      1570.3117     -38179.757      18.214221      1074082.8    
    162500   303.71837     -47722.48       1546.8355     -38129.1       -27.22726       1075642.9    
    162600   299.40563     -47496.518      1500.9003     -38063.333      21.516621      1076147      
    162700   302.46866     -47505.409      1540.2059     -37951.767     -19.506894      1076221.6    
    162800   303.78086     -47501.179      1551.6687     -37901.31      -9.9328243      1075509.8    
    162900   299.87467     -47537.056      1551.5455     -38040.799      30.146532      1074838.5    
    163000   299.06452     -47648.584      1543.1302     -38182.206     -5.1733632      1074343.7    
    163100   299.58157     -47677.358      1546.6043     -38193.808     -23.245406      1073308.7    
    163200   300.52437     -47691.877      1585.3102     -38144.643      4.5084994      1071500.2    
    163300   303.27364     -47706.322      1598.7063     -38072.854      15.872821      1070636.9    
    163400   303.37872     -47700.555      1579.6186     -38083.39      -11.12561       1072597.2    
    163500   298.22678     -47674.781      1544.5765     -38229.152     -54.669245      1074691.7    
    163600   300.85074     -47724.258      1488.7496     -38264.938      21.113433      1073062.2    
    163700   302.00138     -47744.996      1548.0379     -38195.902      52.943892      1070842.5    
    163800   300.9904      -47668.252      1573.4124     -38120.569      48.720182      1071398.5    
    163900   298.0543      -47545.06       1530.0677     -38118.509     -7.2540623      1074206.4    
    164000   296.87878     -47507.888      1523.4651     -38119.083     -3.3346362      1075971.7    
    164100   299.29423     -47502.797      1523.2203     -38050.243      32.320192      1075650.2    
    164200   301.98602     -47493.891      1556.8834     -37936.359      26.136953      1075851      
    164300   300.27754     -47409.844      1549.504      -37904.955     -6.3476198      1077498.7    
    164400   301.3531      -47548.965      1535.6285     -38029.456     -62.283151      1079732.9    
    164500   297.36893     -47552.516      1531.2433     -38142.947     -38.710826      1078890.3    
    164600   299.4126      -47641.174      1628.6404     -38080.064      26.585576      1075664.4    
    164700   303.25516     -47642.341      1588.3165     -38019.752      46.589153      1074969.9    
    164800   300.95546     -47558.453      1573.6715     -38011.436     -13.785272      1078459.4    
    164900   299.50574     -47481.291      1549.8672     -37996.487     -41.423737      1081096.4    
    165000   302.02184     -47425.637      1527.8607     -37896.179     -14.748836      1081200.4    
    165100   305.16986     -47448.836      1564.2847     -37799.551     -3.5108133      1079670.8    
    165200   302.07042     -47432.623      1562.2446     -37867.494      14.914512      1078203.5    
    165300   298.86232     -47517.079      1572.4285     -38026.76       18.860157      1077500      
    165400   294.51667     -47465.612      1593.5839     -38069.269      46.011321      1077192.8    
    165500   299.30005     -47593.841      1598.2373     -38066.116     -22.132821      1077531.7    
    165600   299.74231     -47520.1        1574.9772     -38003.919     -4.1473479      1077116.5    
    165700   301.57238     -47393.316      1525.842      -37877.785      60.377463      1078003.4    
    165800   300.03726     -47330.283      1532.2176     -37849.046     -2.1329371      1081380.9    
    165900   296.32378     -47334.424      1541.5714     -37942.216     -23.474259      1082043.7    
    166000   300.58745     -47585.683      1547.6264     -38074.461     -14.73177       1078804.7    
    166100   299.6763      -47602.243      1544.8371     -38117.95       38.958944      1075070.5    
    166200   303.61478     -47723.32       1512.5754     -38166.945      42.759056      1073228.9    
    166300   297.94342     -47789.16       1545.1001     -38350.514     -3.3920369      1073933.2    
    166400   298.02277     -47786.823      1530.7497     -38360.425     -15.42442       1074341      
    166500   300.57181     -47750.621      1547.8103     -38239.63       7.4202229      1073299.1    
    166600   304.11545     -47784.569      1557.6759     -38169.829      7.8398289      1073753.5    
    166700   300.15487     -47658.335      1528.6778     -38177.522     -20.879552      1076182      
    166800   299.80439     -47630.972      1530.8643     -38157.258     -47.881929      1078017.4    
    166900   298.16271     -47486.101      1602.6257     -37984.119      45.904826      1076904.2    
    167000   306.51426     -47553.75       1515.4137     -37917.72       14.149621      1076599.2    
    167100   301.43632     -47560.185      1564.3485     -38009.752     -48.498862      1078105.4    
    167200   297.21549     -47568.595      1598.0012     -38096.333     -15.913851      1077407.6    
    167300   301.34733     -47681.075      1570.1744     -38127.174      3.9528993      1075329.5    
    167400   298.87691     -47708.82       1527.9495     -38262.593      15.689471      1074076      
    167500   294.81607     -47750.083      1559.6017     -38379.789     -11.313496      1074241.4    
    167600   298.72065     -47816.33       1577.1846     -38325.008      0.4506721      1073629.3    
    167700   300.57046     -47820.548      1597.1399     -38260.263      26.647521      1072670.9    
    167800   299.53507     -47734.483      1568.8064     -38229.962      0.21734831     1073021.6    
    167900   300.45949     -47716.195      1606.4281     -38149.562      16.619099      1074455.6    
    168000   303.02495     -47565.429      1538.6162     -37998.639     -31.724625      1077284.5    
    168100   301.87618     -47540.36       1559.717      -37982.905     -31.397812      1078768      
    168200   302.56569     -47610.985      1529.9573     -38065.022     -16.532238      1077146.7    
    168300   299.80163     -47726.121      1549.6529     -38233.692      4.8907957      1074338.3    
    168400   299.99893     -47773.691      1554.1614     -38271.525      19.688975      1072719.9    
    168500   295.63479     -47655.082      1597.7889     -38224.91       70.364689      1073444.7    
    168600   301.86898     -47667.292      1515.7963     -38153.948     -10.042601      1077420.3    
    168700   299.00039     -47538.269      1517.6489     -38099.071     -56.108754      1080856      
    168800   299.2649      -47544.858      1573.2777     -38043.024     -34.719139      1079705.3    
    168900   299.12144     -47519.675      1586.9567     -38007.963      38.090823      1076248      
    169000   299.86364     -47568.056      1592.372      -38031.265      29.388243      1074712.3    
    169100   299.28327     -47670.874      1537.545      -38204.286     -25.058931      1074923.3    
    169200   297.88409     -47630.489      1525.7572     -38212.758     -4.2037373      1075706.1    
    169300   297.01246     -47550.675      1532.8275     -38148.965      36.141178      1075797.2    
    169400   303.68329     -47672.92       1531.5504     -38095.755     -16.948907      1075897.4    
    169500   303.39305     -47629.666      1543.9063     -38047.834      26.123279      1075328.2    
    169600   301.28717     -47576.776      1550.1103     -38044.532     -4.9498357      1076586.7    
    169700   301.43425     -47630.973      1596.1531     -38048.789     -35.074408      1077603.3    
    169800   300.98466     -47652.693      1579.3772     -38099.197     -31.392455      1076365.3    
    169900   300.71683     -47791.382      1607.399      -38216.96       0.29701663     1073455.7    
    170000   300.3352      -47887.356      1598.1358     -38332.308      43.423852      1070943.2    
    170100   297.40669     -47814.131      1606.5524     -38328.252     -4.137644       1072024.5    
    170200   300.46557     -47785.181      1541.8623     -38282.952     -1.878304       1074488.8    
    170300   297.3914      -47569.055      1581.1891     -38108.945      18.47142       1076657.6    
    170400   300.3799      -47532.246      1586.9266     -37987.222     -13.756486      1078316.7    
    170500   298.67354     -47477.144      1539.5966     -38024.658     -9.116018       1079547.3    
    170600   300.18417     -47601.379      1584.8142     -38063.653     -41.739364      1078629.6    
    170700   301.5404      -47680.048      1602.104      -38089.102      2.1423651      1075635.3    
    170800   297.29941     -47635.066      1566.7826     -38191.799      58.045303      1073383.8    
    170900   299.6536      -47809.067      1567.8202     -38302.392     -5.0363467      1074081.4    
    171000   300.19905     -47768.442      1529.938      -38285.198     -21.779893      1075858.8    
    171100   301.67333     -47707.14       1634.7272     -38080.048     -29.501634      1077492.4    
    171200   299.2855      -47506.648      1543.1072     -38034.439     -20.750408      1078540      
    171300   298.96734     -47534.901      1601.0509     -38013.177      3.796108       1078367.4    
    171400   300.84225     -47518.538      1552.944      -37995.248      11.765016      1078012.8    
    171500   302.01657     -47612.478      1604.2623     -38006.758     -6.5489522      1077322.3    
    171600   299.77793     -47664.123      1567.5529     -38154.421     -8.9215138      1075753.8    
    171700   295.52601     -47645.958      1567.9882     -38248.469      77.553611      1073920      
    171800   300.75552     -47769.588      1548.2805     -38253.259      46.630936      1073427.6    
    171900   300.73071     -47709.056      1563.2902     -38178.375      0.25832109     1075096.9    
    172000   302.68001     -47585.365      1574.8717     -37991.459      3.9065228      1077621.1    
    172100   301.90614     -47549.155      1587.6805     -37962.943     -45.653625      1079623.1    
    172200   302.91731     -47571.344      1545.3985     -38000.624     -34.475153      1079085.4    
    172300   298.42863     -47587.239      1537.9604     -38142.878     -31.351895      1076439      
    172400   300.19851     -47809.815      1560.6764     -38295.847      26.106004      1072174.5    
    172500   302.0334      -47853.417      1558.3457     -38293.168      18.918404      1071178.9    
    172600   297.66189     -47756.422      1588.9064     -38281.428      3.9016257      1072604.8    
    172700   299.63131     -47609.589      1504.7104     -38166.615      13.899705      1074977.5    
    172800   299.7101      -47558.429      1571.8024     -38046.275     -11.646269      1077282      
    172900   297.9562      -47502.898      1590.3357     -38018.677     -44.589553      1078475.5    
    173000   298.12574     -47485.783      1563.1787     -38024.228     -1.9860335      1077184.6    
    173100   302.36429     -47616.35       1566.9565     -38038.723      7.4706036      1074419.9    
    173200   297.62985     -47592.416      1557.9315     -38149.247      29.526652      1074094.2    
    173300   295.31431     -47696.087      1566.4483     -38305.747     -40.457001      1076313.2    
    173400   296.93704     -47693.169      1558.8476     -38267.438     -29.273047      1075782.1    
    173500   301.34068     -47679.711      1551.0543     -38145.106      29.079343      1073666.6    
    173600   300.51911     -47655.638      1591.6109     -38102.242      33.058647      1073444.7    
    173700   298.99972     -47611.926      1593.4776     -38096.917     -6.9030549      1076725.2    
    173800   298.22386     -47486.476      1589.8823     -37995.618     -23.949183      1078490.1    
    173900   304.31841     -47448.054      1520.9741     -37864.639     -9.2425352      1077994.3    
    174000   302.81054     -47500.888      1588.9825     -37889.412      30.096213      1076973.4    
    174100   298.30339     -47505.017      1563.6363     -38038.298      16.911031      1077499.2    
    174200   301.74676     -47586.326      1480.379      -38111.637     -38.179259      1077423      
    174300   300.24272     -47629.096      1578.7055     -38095.928      23.457056      1074332.4    
    174400   301.56826     -47674.581      1579.6344     -38105.367      50.120568      1072751.9    
    174500   296.57747     -47605.281      1522.6108     -38225.313      13.718083      1074489.6    
    174600   295.7911      -47637.787      1511.4461     -38289.818     -51.162859      1076685.1    
    174700   300.04129     -47531.328      1508.1675     -38074.034      50.600578      1076056.6    
    174800   301.6099      -47564.218      1572.3911     -38001.143      11.404179      1076237.8    
    174900   299.83096     -47476.853      1527.8244     -38005.475      31.965049      1076969.8    
    175000   301.27954     -47520.706      1504.2087     -38034.566     -46.191626      1078913.6    
    175100   300.72314     -47528.297      1560.6079     -38000.498     -46.740524      1078681.2    
    175200   302.57713     -47478.787      1588.4165     -37874.062      38.023967      1076598      
    175300   305.33254     -47534.157      1551.3459     -37893.501      10.112449      1075768.7    
    175400   300.21041     -47573.374      1552.8852     -38066.883     -6.5368467      1077014.1    
    175500   297.3593      -47519.064      1547.0653     -38093.929     -33.670261      1078107.7    
    175600   300.71101     -47594.918      1582.1168     -38045.932     -8.2223355      1076345.6    
    175700   302.76904     -47658.015      1600.7029     -38035.918      26.471747      1073869.3    
    175800   300.14295     -47726.96       1568.3171     -38206.824     -12.302014      1073581.2    
    175900   301.02686     -47848.93       1589.2768     -38284.416     -30.557893      1073339.3    
    176000   294.54711     -47671.553      1597.8171     -38270.17       40.675017      1073163      
    176100   301.40254     -47688.464      1549.4527     -38153.822     -10.652659      1074796.8    
    176200   300.49716     -47544.923      1546.905      -38036.815     -29.688058      1077968.6    
    176300   298.59765     -47458.706      1544.8828     -38002.944     -20.856618      1080245.3    
    176400   298.159       -47406.317      1524.2861     -37982.774      1.7234395      1078873.5    
    176500   303.2899      -47572.202      1559.3495     -37977.66       44.452398      1075759      
    176600   299.61258     -47614.999      1559.1622     -38118.069      29.790962      1074025.2    
    176700   298.50826     -47783.507      1632.7903     -38242.207     -10.465943      1073644.5    
    176800   300.61303     -47822.558      1578.4272     -38279.858     -25.486607      1073715.8    
    176900   299.0821      -47727.842      1539.0029     -38265.126      4.7085479      1074221      
    177000   300.90438     -47674.141      1600.5767     -38101.572      15.803812      1074340.4    
    177100   303.83014     -47618.315      1532.9192     -38035.89       14.793775      1075100.8    
    177200   304.18375     -47733.652      1594.3843     -38080.394     -54.007681      1076902.1    
    177300   298.73546     -47533.672      1508.9375     -38110.205     -5.8931762      1076819.4    
    177400   299.3455      -47705.851      1536.2263     -38238.933     -5.4379949      1074252.1    
    177500   298.88157     -47819.69       1536.3655     -38364.924     -7.8915226      1071942.5    
    177600   298.39523     -47795.44       1530.4331     -38359.491     -19.647169      1071912.7    
    177700   298.65816     -47664.893      1541.266      -38211.145      38.112273      1073858.3    
    177800   301.67512     -47635.786      1489.1447     -38154.229     -11.20597       1076520.2    
    177900   299.98613     -47608.128      1545.9497     -38114.514     -37.573989      1076982.4    
    178000   302.4747      -47648.195      1554.743      -38079.856      1.1426052      1075164.2    
    178100   300.99656     -47699.888      1594.716      -38130.737      51.521778      1073575.3    
    178200   296.84151     -47719.091      1512.2513     -38342.487     -23.507763      1074808.9    
    178300   299.43133     -47787.961      1564.0085     -38290.986     -25.592785      1074031.1    
    178400   300.28334     -47693.571      1560.7212     -38177.311      27.513849      1071987.3    
    178500   299.91624     -47646.306      1550.393      -38150.101      55.403862      1072239.5    
    178600   300.14695     -47737.726      1551.9448     -38233.856     -23.520613      1075455      
    178700   294.87028     -47745.996      1579.5018     -38354.366     -70.663334      1076647.3    
    178800   301.27222     -47747.293      1555.8703     -38209.685     -13.866579      1072951.2    
    178900   306.31538     -47786.636      1528.6576     -38142.63       67.414284      1069446.4    
    179000   298.58293     -47710.331      1547.7035     -38252.139      23.333195      1072110.2    
    179100   299.80397     -47784.397      1554.657      -38286.902     -81.935246      1075672.2    
    179200   300.25803     -47709.507      1588.3613     -38166.277     -42.735797      1074972      
    179300   301.43489     -47606.859      1551.958      -38068.854      25.006312      1072209      
    179400   302.39383     -47727.854      1580.5511     -38135.851      31.062833      1071250.7    
    179500   299.95297     -47717.961      1548.5918     -38222.583     -4.8695109      1072077.3    
    179600   298.08314     -47664.39       1535.6276     -38231.515     -1.8099398      1073271.8    
    179700   301.75395     -47697.359      1538.6257     -38164.233     -17.385328      1074292      
    179800   305.66921     -47689.052      1595.9071     -37994.916     -10.51206       1075321.7    
    179900   302.0036      -47501.858      1564.7082     -37936.036      6.0073823      1076717.7    
    180000   299.59377     -47515.419      1528.0957     -38050.054      9.0398501      1077468.3    
    180100   298.47984     -47613.885      1543.1137     -38163.014     -23.48508       1076325.7    
    180200   300.00821     -47664.8        1559.9884     -38156.563      41.479826      1073489.6    
    180300   301.14006     -47668.234      1509.5451     -38180.453      35.855649      1073522.9    
    180400   298.29593     -47625.936      1468.81       -38254.241     -30.120902      1075942.8    
    180500   299.62457     -47682.146      1523.9672     -38220.094     -7.2591498      1076010.3    
    180600   304.021       -47623.275      1532.1263     -38036.586     -10.629721      1075158      
    180700   301.86958     -47609.005      1581.7815     -38029.66       23.263058      1074897.1    
    180800   301.22716     -47627.495      1515.5558     -38131.396      21.112821      1075368      
    180900   297.33828     -47631.699      1544.3766     -38209.809     -1.2232805      1076007.9    
    181000   299.35278     -47594.293      1468.0238     -38195.384     -9.302317       1075520.8    
    181100   304.02163     -47701.313      1500.338      -38146.397     -5.7588875      1074231.5    
    181200   300.66353     -47628.067      1533.7589     -38128.697      20.408115      1073921      
    181300   302.59431     -47672.573      1512.221      -38143.588      1.5385808      1074391.9    
    181400   299.61759     -47614.234      1549.2086     -38127.125      24.778841      1075502.5    
    181500   301.09421     -47576.404      1519.2942     -38080.089      9.869154       1077306.9    
    181600   299.46632     -47441.96       1523.7908     -37984.276     -0.37645338     1078784.5    
    181700   301.55311     -47472.832      1593.612      -37890.041     -38.219172      1079577.1    
    181800   301.10055     -47428.333      1571.5826     -37879.561      22.738522      1079111.9    
    181900   296.61198     -47464.026      1604.783      -38000.972     -6.0090015      1078961      
    182000   297.61604     -47594.755      1578.4298     -38131.453      11.393847      1076361.2    
    182100   300.20509     -47697.754      1571.8521     -38172.437      52.320571      1073118.9    
    182200   299.96225     -47739.857      1562.1388     -38230.687      1.622137       1073552.8    
    182300   296.43036     -47720.976      1586.6151     -38280.901     -39.884348      1075440.1    
    182400   299.90542     -47758.885      1557.7628     -38255.596     -26.097008      1074782.4    
    182500   302.7944      -47687.38       1551.1093     -38114.205      20.576161      1073256      
    182600   300.96457     -47615.478      1595.4404     -38046.45       27.607433      1073693.2    
    182700   302.51121     -47690.41       1606.5836     -38069.264     -14.832299      1075654.6    
    182800   296.35977     -47555.558      1530.5242     -38173.444     -46.291949      1077133      
    182900   296.12369     -47574.467      1508.8167     -38220.316     -17.921583      1075471      
    183000   299.61938     -47569.069      1561.5948     -38069.526      57.113346      1072833      
    183100   302.12235     -47531.457      1556.9333     -37970.263      39.462222      1074209.8    
    183200   299.54224     -47537.946      1570.3699     -38031.672      11.206022      1077324.6    
    183300   302.15285     -47601.407      1517.7902     -38078.548     -52.283765      1078167.4    
    183400   297.6006      -47507.977      1593.5045     -38030.009      21.766133      1075600.7    
    183500   305.24216     -47557.591      1568.8654     -37901.811      53.096206      1074243.8    
    183600   303.72806     -47596.025      1569.2911     -37979.933     -44.492821      1076631.5    
    183700   293.47827     -47458.003      1597.0643     -38085.69       13.18183       1078096      
    183800   301.57011     -47549.137      1510.96       -38048.547     -43.712096      1077064.3    
    183900   302.851       -47582.262      1570.4751     -37988.222      42.584015      1074185.8    
    184000   301.76535     -47746.055      1639.212      -38112.041     -19.192219      1073986.4    
    184100   294.68297     -47625.465      1555.3192     -38262.981     -0.39254325     1074665.3    
    184200   298.82549     -47681.145      1566.9418     -38197.288      29.908193      1074594.1    
    184300   298.43889     -47543.848      1575.5677     -38061.607      17.290579      1074246.7    
    184400   305.80258     -47692.24       1593.0674     -37997.41      -3.8960639      1074082.4    
    184500   300.95568     -47656.55       1607.7781     -38075.42      -31.146127      1075374.1    
    184600   299.70239     -47685.231      1526.449      -38218.635     -17.06117       1075088.9    
    184700   301.61264     -47757.652      1539.3213     -38227.575     -42.561114      1072943.7    
    184800   301.74299     -47745.857      1570.3143     -38181.333      39.77758       1071470      
    184900   298.61945     -47708.552      1571.4832     -38225.612      7.5013219      1073399.4    
    185000   295.84793     -47688.077      1533.6407     -38316.407     -0.92753337     1075189.3    
    185100   294.7523      -47709.274      1518.259      -38382.012     -3.8799392      1074306.1    
    185200   300.63701     -47797.465      1530.5184     -38302.038      0.32778477     1072094.3    
    185300   303.53935     -47775.73       1561.6318     -38172.297      56.384635      1071180.7    
    185400   301.08085     -47715.158      1541.5033     -38196.987      1.4283801      1073553.9    
    185500   294.73684     -47604.875      1500.6993     -38295.583     -13.136498      1076329.9    
    185600   296.54542     -47665.593      1480.077      -38329.008     -2.2607499      1075021      
    185700   299.39927     -47717.309      1608.7326     -38176.46       39.480772      1071862.6    
    185800   299.29402     -47641.77       1610.6044     -38101.838      43.829875      1072475.7    
    185900   300.00908     -47652.331      1594.7478     -38109.31      -27.876149      1075866.1    
    186000   296.67887     -47647.634      1616.5935     -38170.997     -39.188924      1077184.7    
    186100   297.56065     -47623.048      1607.2942     -38132.348      12.107725      1076596.5    
    186200   301.30614     -47582.728      1603.7479     -37996.344     -0.18329868     1076445.6    
    186300   302.67879     -47556.918      1550.888      -37987.028      1.3619248      1078222.4    
    186400   295.15242     -47440.506      1556.6642     -38064.239     -14.321691      1079238.6    
    186500   298.84997     -47674.072      1572.2319     -38184.277      0.45440246     1076344.2    
    186600   301.35259     -47837.207      1568.8549     -38284.485      24.242502      1072972.1    
    186700   299.20699     -47812.858      1548.757      -38337.079      1.905936       1072617.9    
    186800   296.59889     -47688.43       1570.9666     -38259.538      1.8814295      1074702      
    186900   300.86964     -47592.447      1557.1472     -38064.228     -7.5776309      1076890.9    
    187000   302.1098      -47519.68       1538.3569     -37977.395     -12.1346        1078288      
    187100   300.72586     -47461.754      1559.922      -37934.57       1.1460451      1078947.6    
    187200   301.15938     -47486.959      1551.4247     -37956.786     -36.982193      1079163.9    
    187300   300.81192     -47605.854      1535.2466     -38101.065     -7.871098       1077260.2    
    187400   296.34559     -47632.777      1589.8085     -38191.755      19.575557      1074860.5    
    187500   299.37296     -47642.253      1546.2007     -38164.633      30.971892      1074627.7    
    187600   299.94603     -47577.658      1530.3992     -38100.657      4.0080286      1076887.3    
    187700   300.73779     -47389.833      1536.8624     -37885.392      19.200831      1078439.6    
    187800   299.73251     -47404.414      1595.0318     -37868.438      36.885844      1078478.1    
    187900   302.43771     -47556.698      1553.598      -37990.485     -25.17115       1077935.4    
    188000   299.60703     -47550.793      1538.956      -38074.216     -18.102927      1076267.2    
    188100   300.94152     -47632.025      1530.8386     -38128.21      -3.5119548      1074994.4    
    188200   300.85853     -47668.294      1514.8545     -38182.662      13.342291      1074373.7    
    188300   303.21531     -47728.712      1492.5404     -38202.954     -28.970555      1074672.6    
    188400   303.17573     -47702.87       1534.6998     -38136.002      8.9292145      1074536.9    
    188500   301.79321     -47580.463      1529.8462     -38055.077      12.952656      1074649.3    
    188600   302.8281      -47572.218      1533.5146     -38015.746      38.23983       1075688.3    
    188700   299.50988     -47588.158      1568.1002     -38085.011     -17.240896      1076998.7    
    188800   297.8326      -47664.528      1560.9414     -38212.976     -35.757477      1076259.9    
    188900   299.26808     -47722.397      1552.0463     -38241.71       29.968295      1072738.7    
    189000   299.35317     -47739.693      1537.3356     -38271.462      76.000746      1071120.6    
    189100   293.39826     -47677.893      1578.2269     -38326.537     -18.664266      1073913.5    
    189200   298.48354     -47662.15       1523.0013     -38231.293     -39.191647      1076286.9    
    189300   299.29041     -47577.058      1552.6345     -38095.191     -23.74899       1076151.8    
    189400   301.77571     -47581.075      1549.7511     -38036.247      32.341681      1074214.8    
    189500   300.31114     -47644.797      1585.7399     -38102.782     -20.58094       1074498.6    
    189600   297.43823     -47647.218      1521.1687     -38245.888     -32.739367      1075554.6    
    189700   297.18015     -47725.71       1558.7031     -38293.682     -18.929749      1073917.2    
    189800   301.12717     -47686.518      1565.5958     -38143.027      56.957107      1070919.7    
    189900   303.78762     -47671.727      1615.9258     -38007.422      23.669469      1073176.3    
    190000   299.39388     -47565.938      1527.9949     -38105.969     -56.611476      1078786      
    190100   297.06466     -47504.04       1506.6375     -38127.138     -81.285722      1079816.8    
    190200   301.28109     -47579.738      1568.044      -38029.722      24.811379      1074991.8    
    190300   303.46981     -47620.571      1557.3055     -38023.306      95.809467      1072027.4    
    190400   299.15401     -47710.659      1540.2838     -38244.756     -4.6038033      1074938.8    
    190500   294.68037     -47562.954      1494.2476     -38261.61      -21.31171       1077151.9    
    190600   296.67141     -47526.002      1542.3759     -38123.78       45.065738      1076442.7    
    190700   303.25304     -47618.295      1540.1714     -38043.907      7.7810335      1075221.6    
    190800   304.73676     -47645.997      1519.9294     -38052.542     -47.810453      1075794.9    
    190900   299.92599     -47582.482      1488.5709     -38147.84       3.6866103      1075693.2    
    191000   297.01413     -47620.034      1437.4296     -38313.678      46.217548      1073624.1    
    191100   297.70644     -47756.436      1537.9743     -38331.195     -15.454965      1072084.9    
    191200   298.63609     -47709.033      1559.6818     -38237.454      34.735184      1072187.6    
    191300   298.57485     -47733.938      1608.3898     -38215.273      2.7327726      1073643.8    
    191400   301.15207     -47692.902      1550.7616     -38163.586     -24.460939      1074948.9    
    191500   300.65495     -47587.421      1545.7225     -38076.315      29.261299      1074300.4    
    191600   299.85247     -47615.116      1641.1466     -38029.846      21.726008      1073899.8    
    191700   298.41151     -47676.281      1566.9781     -38203.355     -31.012329      1075218.3    
    191800   300.72457     -47741.335      1495.6198     -38278.487     -26.185835      1075207.1    
    191900   299.38193     -47689.98       1539.6672     -38218.655      47.956422      1073031.3    
    192000   302.92854     -47752.23       1581.9369     -38144.674      15.566297      1072972.9    
    192100   297.97481     -47629.553      1544.9566     -38190.219      26.467487      1074040      
    192200   296.78144     -47684.117      1476.2941     -38345.062      1.4575193      1075265.4    
    192300   300.97371     -47810.527      1488.4139     -38348.285     -18.062102      1073734.3    
    192400   305.27247     -47853.94       1549.9963     -38216.226      23.424755      1071310.4    
    192500   304.41126     -47787.051      1576.798      -38145.352     -7.5407542      1073067.6    
    192600   299.81709     -47641.883      1574.3337     -38124.363     -62.669069      1076720.9    
    192700   296.87456     -47456.512      1526.8399     -38064.444      19.906035      1077348.8    
    192800   299.74404     -47537.879      1581.0111     -38015.618     -1.3435311      1076062      
    192900   304.7219      -47716.303      1615.6808     -38027.491      11.239413      1073876.1    
    193000   300.30626     -47666.705      1540.6848     -38169.874      1.3236515      1073740.5    
    193100   296.26396     -47606.437      1549.0268     -38208.359      1.4734603      1074865.6    
    193200   295.4838      -47555.684      1586.1327     -38141.169      3.3202947      1075218.7    
    193300   299.85799     -47583.053      1608.8252     -38029.958     -18.38647       1075962.9    
    193400   300.69487     -47556.342      1569.8187     -38020.082     -25.194786      1076922.9    
    193500   302.68131     -47627.068      1553.512      -38054.487     -8.1728102      1076358.1    
    193600   299.56969     -47593.229      1549.0872     -38107.51       30.40624       1074748.9    
    193700   300.61518     -47680.587      1504.0596     -38212.197      30.785475      1073927.1    
    193800   296.82375     -47746.186      1542.7286     -38339.575     -20.73896       1074524.5    
    193900   294.9198      -47602.437      1530.313      -38258.684      10.242934      1075020.1    
    194000   300.7868      -47665.186      1530.6694     -38165.639     -23.243884      1075369.8    
    194100   301.94644     -47647.115      1560.2416     -38087.273     -51.5247        1075523.8    
    194200   300.97621     -47525.582      1534.7516     -38016.935      3.9457272      1075074.7    
    194300   300.81789     -47532.062      1569.9517     -37992.409      0.24201647     1075230.2    
    194400   297.90205     -47610.392      1578.175      -38139.767      37.921273      1074242.1    
    194500   298.04122     -47729.668      1577.3618     -38256.17      -2.2400653      1072890.6    
    194600   299.20326     -47783.541      1579.985      -38276.632      32.88397       1071434      
    194700   300.81515     -47771.456      1570.5188     -38231.309     -25.922408      1072180.7    
    194800   301.28455     -47633.483      1554.3385     -38097.081      33.140443      1073475.1    
    194900   299.10888     -47562.81       1618.518      -38019.869     -0.14546072     1076198.6    
    195000   297.39657     -47493.852      1566.5836     -38048.211     -7.9208156      1077610.8    
    195100   299.13374     -47689.303      1578.3333     -38185.888     -22.326819      1075634.1    
    195200   299.46257     -47789.811      1578.3185     -38277.699     -7.986496       1072229.5    
    195300   300.86923     -47804.499      1536.7267     -38296.711      63.14839       1070957      
    195400   298.56206     -47704.922      1487.0925     -38307.893      12.014725      1073203.7    
    195500   297.53689     -47731.326      1613.7541     -38234.797      11.423884      1074609.1    
    195600   302.13438     -47656.063      1559.2556     -38092.228     -2.7703875      1073830.1    
    195700   302.73227     -47633.83       1537.5798     -38075.831      51.569062      1073232.6    
    195800   295.89718     -47644.337      1615.034      -38189.969     -5.0051913      1074740.7    
    195900   298.83139     -47778.923      1594.2949     -38267.556     -43.626504      1074802.1    
    196000   297.9724      -47696.381      1565.808      -38236.259      44.012656      1073066.9    
    196100   301.39375     -47622.213      1563.5819     -38073.675      66.280076      1072944.6    
    196200   303.11838     -47634.868      1556.5242     -38047.695     -33.330365      1076476.7    
    196300   301.14425     -47546.714      1475.0712     -38093.296     -63.518063      1078809.2    
    196400   298.80539     -47590.096      1560.631      -38113.082     -25.037171      1077453.5    
    196500   303.04907     -47605.78       1584.8275     -37992.14       50.086139      1074824.9    
    196600   297.48574     -47438.042      1621.7124     -37934.909      9.8442588      1076504.9    
    196700   303.27868     -47524.075      1564.6677     -37924.512     -41.017302      1079375.3    
    196800   300.23919     -47446.537      1568.2399     -37923.929     -28.831         1080377.5    
    196900   301.63633     -47558.376      1565.3155     -38001.676     -19.899898      1077215      
    197000   299.48226     -47735.554      1656.9526     -38144.286      27.639958      1072832.3    
    197100   299.48929     -47692.418      1522.6241     -38235.293     -5.5001271      1071593.4    
    197200   295.76603     -47708.521      1612.7943     -38259.867      29.772791      1071323.1    
    197300   298.67627     -47673.59       1568.1984     -38192.43      -9.1488307      1072124.4    
    197400   299.56652     -47571.977      1644.2204     -37991.209      32.420361      1073682.6    
    197500   300.49946     -47535.429      1604.6345     -37969.53      -50.685734      1077309.2    
    197600   300.1441      -47539.334      1577.2282     -38010.256     -14.565863      1077447.3    
    197700   301.90202     -47621.32       1576.7854     -38046.112     -40.241382      1076018.3    
    197800   299.48383     -47641.626      1577.2554     -38130.013     -4.3402784      1073850.4    
    197900   298.30157     -47690.664      1577.7661     -38209.863      48.500341      1071227.5    
    198000   300.37621     -47781.236      1579.9564     -38243.28      -9.7179785      1071435.6    
    198100   296.75646     -47687.808      1549.9327     -38275.776     -13.200307      1073224.4    
    198200   298.76079     -47678.362      1588.2447     -38174.916     -1.0790796      1073394.3    
    198300   301.60509     -47568.252      1541.0429     -38036.653      25.246949      1073242.6    
    198400   303.40204     -47647.803      1587.1417     -38022.498     -28.052464      1075336.2    
    198500   298.9037      -47569.648      1574.1549     -38076.506     -51.859022      1077449.8    
    198600   301.48461     -47743.622      1581.5479     -38174.71      -87.691339      1075695      
    198700   300.69835     -47837.995      1583.1697     -38288.291      58.934756      1069973.1    
    198800   301.22041     -47957.603      1588.1617     -38389.076      61.959679      1068100.9    
    198900   298.69312     -47877.183      1539.889      -38423.886     -7.9955062      1071965.3    
    199000   300.25766     -47694.66       1530.0493     -38209.752     -56.874654      1075941.3    
    199100   298.77245     -47571.817      1564.4429     -38091.864      1.715189       1076752.8    
    199200   301.78367     -47641.542      1616.69       -38029.564     -1.3791403      1076988.1    
    199300   299.66725     -47535.604      1609.2887     -37987.1       -7.7166698      1076776.6    
    199400   301.85529     -47517.63       1529.7369     -37990.708      6.6074505      1075858.3    
    199500   301.45135     -47631.899      1534.1932     -38111.222     -3.7155612      1075281.1    
    199600   298.12233     -47672.38       1560.5903     -38213.503     -43.842166      1074737.4    
    199700   296.12388     -47660.898      1580.9932     -38234.564      38.017162      1073233      
    199800   297.6918      -47614.277      1580.7475     -38146.65       51.913895      1073727.2    
    199900   305.8008      -47669.947      1567.7912     -38000.441     -26.130342      1076160.5    
    200000   300.46059     -47433.515      1522.1258     -37951.154     -2.4500495      1078298.7    
    200100   299.50823     -47436.158      1562.7104     -37938.444      2.9829202      1078480.6    
    200200   302.42352     -47582.05       1584.6585     -37985.153     -30.145447      1077533.3    
    200300   297.11401     -47575.671      1586.4845     -38117.614      6.0306971      1075438.2    
    200400   302.2322      -47744.255      1529.0414     -38208.043      16.28589       1073248.4    
    200500   300.68567     -47771.547      1540.5036     -38264.846      18.062639      1072378.2    
    200600   301.59605     -47740.606      1490.7835     -38259.506      13.414593      1073579.1    
    200700   299.98494     -47613.683      1587.6804     -38078.37      -6.3905249      1075050.8    
    200800   303.01812     -47530.023      1498.8702     -38003.161      9.1850963      1076145.2    
    200900   298.92463     -47474.981      1505.4325     -38050.007      7.1503651      1077758.9    
    201000   297.7407      -47567.54       1544.1927     -38135.172     -29.693747      1078127.3    
    201100   298.24271     -47654.286      1514.3908     -38238.42       5.9139058      1075525.1    
    201200   299.29179     -47715.089      1514.6154     -38271.204      45.337819      1072288.6    
    201300   297.67604     -47665.769      1556.828      -38222.479      53.565063      1071769.1    
    201400   300.97        -47591.328      1531.7201     -38085.877     -4.7029265      1075191.2    
    201500   302.13222     -47539.65       1556.2495     -37978.878     -50.499272      1079451      
    201600   301.53118     -47458.467      1541.5906     -37928.278     -47.854972      1080047.4    
    201700   301.38145     -47446.041      1512.6212     -37948.788      37.479644      1077256.4    
    201800   300.43725     -47570.731      1495.9626     -38115.153      7.4986804      1075849.1    
    201900   297.8184      -47643.754      1514.4405     -38239.079      10.305811      1074212.1    
    202000   302.95124     -47734.248      1474.2235     -38233.804      90.634687      1071507.2    
    202100   300.93402     -47769.558      1541.6626     -38255.118     -9.0576151      1073151.4    
    202200   294.86414     -47633.384      1562.343      -38259.076     -30.183566      1076573.8    
    202300   299.87459     -47587.952      1558.3675     -38084.875     -47.631113      1077249.6    
    202400   301.54921     -47591.553      1598.4069     -38004.07      -0.014595011    1075735.8    
    202500   300.56008     -47586.52       1577.6517     -38045.998      22.105566      1074399.9    
    202600   303.57173     -47770.805      1547.1533     -38180.992     -21.886897      1074409.6    
    202700   299.76485     -47738.533      1559.858      -38236.872     -38.605433      1074674.8    
    202800   297.36967     -47676.731      1578.3339     -38220.051      10.770573      1074416.2    
    202900   299.4911      -47623.257      1549.0008     -38139.707      18.190251      1075633.1    
    203000   302.48008     -47652.199      1567.1582     -38071.303     -47.394481      1077398.3    
    203100   301.18753     -47569.986      1543.8275     -38046.664     -3.065628       1077747.2    
    203200   296.66082     -47501.953      1594.8689     -38047.519      0.35122377     1077941.2    
    203300   296.43093     -47459.039      1549.3926     -38056.171      15.700205      1078006.8    
    203400   296.61542     -47496.032      1629.5483     -38008.121      9.9894363      1078138.8    
    203500   305.49964     -47491.053      1519.1415     -37878.176      32.030136      1077950.4    
    203600   302.90541     -47475.806      1529.9752     -37920.825     -6.8413999      1078881.8    
    203700   298.67327     -47505.327      1527.5506     -38064.894      16.217998      1079261.4    
    203800   301.36062     -47610.004      1541.876      -38084.049     -13.659859      1077879.4    
    203900   305.02588     -47712.194      1539.9963     -38091.013      5.2829605      1074958.7    
    204000   298.71501     -47692.879      1570.8087     -38208.082      16.837043      1073924.4    
    204100   296.2171      -47787.767      1574.5995     -38365.358     -5.6060713      1074312      
    204200   295.12623     -47655.444      1551.129      -38285.406      5.7649965      1074837      
    204300   299.75789     -47680.144      1560.8474     -38177.679      4.4613236      1074886.1    
    204400   298.46771     -47587.153      1574.6626     -38105.054      25.827765      1075387      
    204500   298.05792     -47537.101      1564.4952     -38076.026      15.615709      1076545.2    
    204600   300.22326     -47496.167      1542.8612     -37999.359      4.2001866      1077126.1    
    204700   302.17587     -47357.18       1495.676      -37855.826      59.477862      1077294      
    204800   302.24299     -47465.815      1580.9585     -37877.4       -4.7908327      1078240.7    
    204900   297.91992     -47486.631      1540.501      -38053.207     -9.4722522      1079551.2    
    205000   296.87345     -47514.359      1579.4133     -38069.747      3.6986844      1078373.4    
    205100   301.20037     -47557.44       1554.6688     -38022.938      30.850832      1075869.9    
    205200   302.20754     -47640.776      1585.7932     -38048.465      12.862427      1074992      
    205300   297.253       -47612.946      1502.1229     -38235.569      12.894771      1075668.5    
    205400   296.5749      -47632.887      1528.8283     -38246.769      19.653985      1075847.4    
    205500   299.92269     -47637          1543.0814     -38147.935      3.7572437      1076154      
    205600   300.84802     -47598.385      1558.407      -38069.479      5.7432238      1077439.8    
    205700   301.06885     -47549.282      1512.8564     -38060.076     -9.1232346      1079148.3    
    205800   298.0459      -47475.973      1527.2844     -38052.428      10.219029      1078402.9    
    205900   299.89543     -47574.951      1593.6162     -38036.073      29.446953      1075673.3    
    206000   300.96232     -47707.41       1557.4633     -38176.42       12.446771      1074818.5    
    206100   296.74778     -47691.713      1556.8005     -38273.043     -3.2744875      1075603.8    
    206200   300.49693     -47738.923      1563.8675     -38213.858     -18.648843      1075683.2    
    206300   303.08568     -47646.496      1503.1703     -38113.543      36.780377      1075892      
    206400   301.8938      -47622.151      1553.0193     -38070.926      8.3697635      1077373.9    
    206500   300.53235     -47574.54       1544.0581     -38068.347     -14.392567      1078534.9    
    206600   301.20062     -47646.909      1574.4709     -38092.598      5.3693369      1077431.7    
    206700   300.87552     -47673.243      1599.7454     -38102.27       0.18573456     1075878.7    
    206800   299.25999     -47558.156      1493.1861     -38136.543      21.612293      1076360.3    
    206900   299.91495     -47683.571      1561.5132     -38176.279     -61.387152      1077549.1    
    207000   299.77766     -47566.139      1524.782      -38099.215     -20.785805      1076649.1    
    207100   307.40239     -47700.942      1577.0444     -37979.751      16.751749      1074126.8    
    207200   303.24642     -47656.189      1545.4526     -38076.695      41.985893      1073818.9    
    207300   300.71515     -47638.447      1499.5341     -38171.934     -1.5717536      1076250.1    
    207400   294.82211     -47531.031      1534.3738     -38185.805     -0.079169273    1077638.8    
    207500   300.61683     -47620.344      1564.41       -38091.56      -32.335628      1077671.8    
    207600   300.81444     -47559.139      1582.5222     -38007.008      29.844191      1076574.9    
    207700   299.29284     -47576.018      1612.2671     -38034.454      25.623759      1076329.4    
    207800   297.29697     -47531.45       1565.6159     -38089.414     -0.72305185     1077364.4    
    207900   301.45971     -47649.055      1566.4078     -38095.942     -42.658343      1078088.9    
    208000   300.01179     -47602.406      1595.2941     -38058.768     -31.341321      1076775.7    
    208100   299.60132     -47626.158      1581.7369     -38106.952      74.362571      1074003.9    
    208200   299.4296      -47756.538      1555.1012     -38268.516     -18.026921      1075222.9    
    208300   300.22506     -47785.804      1533.4245     -38298.384     -47.276379      1076135.8    
    208400   298.492       -47747.073      1597.6403     -38241.353     -23.176521      1075340.9    
    208500   298.69582     -47559.583      1497.8846     -38148.218      25.332083      1075381.2    
    208600   301.95631     -47669.283      1555.9473     -38113.474     -36.477746      1076600.9    
    208700   301.06626     -47666.155      1552.215      -38137.659      12.517902      1075374.4    
    208800   300.44565     -47713.494      1541.7633     -38211.892      39.822891      1072631.2    
    208900   299.55211     -47828.298      1572.5662     -38319.566      18.364027      1072325.8    
    209000   294.10857     -47688.989      1537.7333     -38359.308     -3.207726       1073637.3    
    209100   300.56777     -47817.691      1543.9827     -38310.634      8.917119       1073310.2    
    209200   301.09386     -47836.355      1563.4479     -38295.895      12.453738      1071584.7    
    209300   299.79745     -47775.522      1505.3752     -38327.482      52.881491      1070881.8    
    209400   298.19449     -47799.016      1540.7417     -38358.076     -12.970415      1073435.9    
    209500   296.68382     -47572.984      1515.8011     -38197.008     -7.592311       1075426.3    
    209600   302.55417     -47624.732      1526.0135     -38083.017      1.661821       1075121.5    
    209700   300.00959     -47638.002      1555.3049     -38134.411      0.055667188    1074059.2    
    209800   296.39628     -47622.418      1566.279      -38203.582      19.438046      1073031      
    209900   295.09196     -47674.089      1569.8135     -38286.275      17.87642       1072283.8    
    210000   298.76727     -47829.616      1525.4407     -38388.802      5.9849107      1071224.1    
    210100   300.1419      -47967.179      1523.5573     -38491.83      -2.9344031      1070724      
    210200   295.12925     -47939.599      1515.6713     -38604.939      3.242198       1070204.7    
    210300   301.76885     -48071.589      1535.6165     -38541.078      16.283246      1068888.1    
    210400   299.83057     -47888.638      1585.8271     -38359.267      16.691637      1069542.4    
    210500   295.39207     -47673.95       1546.5535     -38301.445      12.335473      1073547.9    
    210600   295.93046     -47620.072      1570.7272     -38209.129     -24.689041      1077184.6    
    210700   300.24408     -47575.359      1526.2302     -38094.63       8.8569222      1076475.9    
    210800   302.86692     -47660.583      1568.5694     -38068.028      11.621141      1074601.2    
    210900   301.02415     -47653.364      1552.332      -38125.867      3.0327169      1074729.9    
    211000   300.25946     -47658.245      1548.1311     -38155.208     -11.165735      1075439.3    
    211100   299.46913     -47597.401      1514.1939     -38149.24       18.645159      1075708.2    
    211200   299.83329     -47596.704      1534.2602     -38118.828     -6.5276374      1076184.9    
    211300   302.10705     -47623.637      1522.5868     -38097.195     -18.278348      1075318      
    211400   302.32097     -47627.599      1576.8656     -38041.211      9.7928819      1074468.5    
    211500   299.64862     -47574.517      1592.2367     -38043.558      25.206501      1076216.1    
    211600   297.22246     -47603.885      1584.2599     -38145.18      -81.243614      1078326.6    
    211700   302.62639     -47729.476      1554.8482     -38157.013     -22.787566      1075562.6    
    211800   306.6878      -47796.055      1584.5432     -38086.297      26.492696      1072763.8    
    211900   296.95377     -47585.208      1568.0143     -38149.866      15.27259       1074632.2    
    212000   299.09515     -47664.455      1522.5779     -38217.817     -60.554802      1077682.7    
    212100   301.42715     -47635.94       1572.044      -38078.054     -10.292426      1076684.1    
    212200   309.3803      -47772.284      1571.6077     -38004.128     -9.265992       1074189.3    
    212300   299.41917     -47619.156      1567.3482     -38119.164      47.134353      1073558.4    
    212400   298.2387      -47621.515      1538.1451     -38182.001      6.1552715      1075414.7    
    212500   297.22127     -47551.107      1526.4031     -38150.29      -13.290227      1077435.1    
    212600   297.41767     -47496.288      1601.8649     -38014.806      15.061043      1077303.1    
    212700   299.76701     -47407.035      1557.6391     -37907.537      59.011922      1077543.8    
    212800   300.33073     -47467.161      1573.6162     -37936.75      -10.453808      1079169.1    
    212900   300.29622     -47540.98       1596.3902     -37988.71      -35.643203      1079144      
    213000   298.30649     -47427.379      1519.8815     -38004.333      31.776668      1077890      
    213100   299.60861     -47473.309      1579.2688     -37956.377      0.31136024     1077348.7    
    213200   300.78672     -47435.433      1573.5053     -37893.053      46.854037      1077243.3    
    213300   301.63877     -47536.147      1590.5298     -37954.169     -47.202033      1079377.6    
    213400   296.87919     -47506.109      1565.0961     -38075.662     -35.222025      1079745.9    
    213500   299.74436     -47570.126      1560.5603     -38068.306      20.80237       1077000      
    213600   303.55121     -47601.684      1585.874      -37973.694      54.392194      1075196.8    
    213700   302.53408     -47447.795      1561.2194     -37871.408      47.577129      1077624.8    
    213800   300.69227     -47374.721      1550.6154     -37857.733     -89.237705      1082411.2    
    213900   301.62982     -47379.188      1564.4392     -37823.537     -47.344251      1082303      
    214000   304.46037     -47395.342      1583.2469     -37745.892      28.415359      1078277      
    214100   306.07296     -47522.333      1579.5327     -37833.875      52.293119      1076242.5    
    214200   300.82617     -47528.977      1548.7351     -38010.322     -28.006993      1078556.7    
    214300   295.26686     -47448.305      1572.7442     -38052.927     -30.769345      1079854      
    214400   299.04284     -47474.438      1577.5428     -37974.221      39.74808       1077476.9    
    214500   303.64316     -47465.4        1521.3936     -37899.454      58.47478       1075899.1    
    214600   302.30242     -47566.723      1567.3461     -37990.346     -18.349893      1077654.8    
    214700   297.48432     -47552.858      1535.379      -38136.096     -75.700045      1080029.3    
    214800   301.0984      -47618.493      1547.3942     -38093.966     -21.6073        1078160.1    
    214900   301.84397     -47559.178      1545.9528     -38016.341      47.837802      1075457.8    
    215000   302.87379     -47635.711      1592.5495     -38018.992     -5.1183497      1075207.5    
    215100   300.86201     -47658.387      1573.6797     -38113.838      1.8709919      1075812      
    215200   298.36841     -47603.528      1554.3043     -38144.418     -21.794056      1077177.6    
    215300   303.13156     -47667.314      1523.7013     -38112.615     -32.850053      1077154      
    215400   296.79901     -47590.704      1617.7832     -38109.694      20.010648      1075892.5    
    215500   300.27515     -47626.25       1537.4899     -38133.439      40.833227      1075289.3    
    215600   296.70452     -47671.152      1563.2011     -38247.227     -38.39644       1076384      
    215700   299.31208     -47724.927      1533.8766     -38261.244     -2.1501237      1075442.6    
    215800   299.75362     -47648.606      1606.4483     -38100.653      38.097439      1073560.5    
    215900   301.89045     -47612.914      1588.0572     -38026.74       45.921016      1074610.5    
    216000   298.99357     -47561.722      1562.7679     -38077.586     -38.615394      1078706.2    
    216100   293.48874     -47511.815      1588.1844     -38148.104     -20.894837      1078354.2    
    216200   296.95442     -47555.806      1593.2995     -38095.162      71.632178      1074892.8    
    216300   303.91379     -47606.047      1588.453      -37965.872      43.403278      1075228.1    
    216400   300.90969     -47521.392      1602.2045     -37947.054     -50.315438      1079485.3    
    216500   300.32779     -47479.965      1584.9046     -37938.344     -57.610037      1080998      
    216600   303.80697     -47507.156      1573.456      -37884.808     -7.9631237      1078638.8    
    216700   302.48686     -47531.668      1567.9858     -37949.765      49.095618      1076042.8    
    216800   298.47922     -47613.735      1590.3901     -38115.604     -13.85043       1077342.5    
    216900   298.3859      -47626.249      1587.3822     -38133.598     -38.018216      1078643.9    
    217000   303.45492     -47659.839      1581.2499     -38039.025     -43.293719      1077501.4    
    217100   300.88402     -47529.702      1584.2044     -37974.045      83.276526      1075970.2    
    217200   297.73591     -47563.569      1577.1473     -38098.373     -20.883144      1076476.6    
    217300   298.95014     -47688.726      1521.8331     -38246.675     -31.165946      1076024.8    
    217400   300.96577     -47781.362      1564.5351     -38243.208      6.568538       1072951.4    
    217500   301.16948     -47750.095      1555.9316     -38215.147      28.227402      1071797.8    
    217600   296.77594     -47648.358      1581.8404     -38203.903      20.543474      1074630.8    
    217700   299.16818     -47613.517      1545.8337     -38141.689     -30.344177      1078534.3    
    217800   302.90634     -47538.875      1508.6327     -38005.212     -20.803307      1079627.1    
    217900   301.30177     -47474.455      1536.9643     -37954.97       4.3968823      1078544.9    
    218000   299.1373      -47549.006      1556.5702     -38067.26       27.507039      1077052      
    218100   299.81044     -47713.267      1555.7665     -38214.491     -22.415109      1075221.2    
    218200   304.3337      -47836.105      1548.8357     -38224.423      13.164074      1072484.4    
    218300   297.497       -47815.446      1632.0937     -38301.633      13.32118       1072559.2    
    218400   298.75053     -47844.802      1580.2617     -38349.611     -35.473445      1074743.4    
    218500   299.73702     -47867.26       1570.102      -38356.093     -34.336037      1074430      
    218600   299.37206     -47718.496      1573.6912     -38213.409      56.928189      1072756.6    
    218700   299.70488     -47662.386      1585.7989     -38136.374      0.12482818     1074818.4    
    218800   296.67043     -47569.513      1582.8865     -38126.806     -33.724601      1077524.1    
    218900   305.11526     -47686.442      1518.6521     -38084.237     -36.281048      1077717.3    
    219000   302.90574     -47608.988      1561.1688     -38022.804      46.405538      1075714.9    
    219100   299.69448     -47629.531      1557.3735     -38132.22       27.067221      1075538.3    
    219200   298.38058     -47621.475      1493.863      -38222.484     -38.23398       1077578      
    219300   301.51128     -47662.96       1506.1516     -38168.737     -15.911347      1076903.6    
    219400   300.45516     -47628.913      1576.9167     -38091.905      0.92348354     1074836.8    
    219500   306.69276     -47706.88       1560.1068     -38021.427      20.353766      1074261.2    
    219600   301.0331      -47621.576      1574.4546     -38071.719      0.4344019      1075482.3    
    219700   299.26502     -47689.291      1559.0869     -38201.644     -32.425316      1075314      
    219800   300.7844      -47753.539      1534.7587     -38249.967      20.759569      1073152.8    
    219900   299.05254     -47731.702      1530.4013     -38278.37       25.527293      1073141.3    
    220000   299.37125     -47790.224      1556.9971     -38301.853     -30.754247      1074976.5    
    220100   297.20203     -47659.106      1512.3698     -38272.832      11.552581      1075271      
    220200   303.49457     -47715.947      1531.2996     -38144.033      27.091384      1074791.7    
    220300   300.96648     -47645.162      1544.404      -38127.12       17.128064      1075544.5    
    220400   294.55933     -47542.039      1522.8326     -38215.317     -14.190707      1076631.7    
    220500   297.60178     -47725.688      1494.6972     -38346.497      12.42625       1074195.4    
    220600   297.9998      -47869.938      1573.9505     -38400.948      34.592639      1071041.5    
    220700   295.7348      -47690.793      1553.7569     -38302.004      89.698528      1071265.1    
    220800   298.53143     -47568.315      1525.2207     -38133.969     -6.2420235      1076503.8    
    220900   299.75564     -47495.321      1524.1964     -38029.566     -52.533795      1080422      
    221000   300.3224      -47471.758      1579.073      -37936.111     -36.655042      1079797.3    
    221100   304.78702     -47586.663      1592.501      -37919.306     -20.568546      1077876.1    
    221200   299.28418     -47575.573      1548.8764     -38097.63       13.62972       1076604.4    
    221300   300.46742     -47652.754      1551.5658     -38140.773      2.2177084      1075452.3    
    221400   297.3677      -47567.566      1550.4382     -38138.835      24.182674      1075393.1    
    221500   302.74229     -47665.14       1569.1197     -38075.336     -35.158518      1076436.9    
    221600   300.39533     -47555.047      1599.9143     -37996.628     -7.1635628      1076785      
    221700   302.70177     -47482.955      1526.4555     -37936.888      8.5346713      1077312.6    
    221800   300.36708     -47444.616      1527.859      -37959         -0.64510578     1078891.1    
    221900   299.33174     -47556.126      1536.1997     -38089.599     -56.948598      1078809.7    
    222000   301.0251      -47675.188      1536.9576     -38163.04       1.73489        1075097      
    222100   297.3938      -47653.871      1573.3567     -38201.529      61.604319      1071879.6    
    222200   295.21763     -47743.563      1562.557      -38359.675      12.441795      1072010.9    
    222300   294.34302     -47710.201      1509.4064     -38402.636     -23.583297      1073205.8    
    222400   302.18622     -47737.467      1479.858      -38251.656      2.0894427      1072694.4    
    222500   302.54365     -47753.258      1560.1528     -38177.683      24.01937       1072585.9    
    222600   301.11151     -47693.704      1557.1174     -38159.107     -25.837559      1075262.7    
    222700   297.83355     -47574.702      1581.1562     -38102.91      -11.212306      1077608.6    
    222800   304.55571     -47574.819      1553.7535     -37952.337      4.2974491      1077531      
    222900   303.61521     -47517.507      1586.9099     -37886.786      1.0537212      1077910.1    
    223000   302.71882     -47556.88       1586.2633     -37950.554     -29.913734      1078318.7    
    223100   301.52734     -47579.639      1578.6864     -38012.456     -23.248243      1078454.1    
    223200   301.1646      -47515.87       1504.454      -38032.53       20.974821      1077740.4    
    223300   300.89494     -47589.588      1536.7125     -38081.134     -22.7636        1077285.2    
    223400   298.45724     -47650.551      1546.6986     -38196.694      5.4784455      1075680.5    
    223500   296.51787     -47768.505      1570.7195     -38342.007      27.462883      1073016.6    
    223600   298.34216     -47793.641      1556.0408     -38333.49       53.219794      1072351.8    
    223700   297.33896     -47710.124      1569.0923     -38263.5       -29.799758      1075833.8    
    223800   297.3415      -47626.991      1597.0398     -38152.352     -47.311391      1078502.3    
    223900   300.77905     -47628.093      1602.14       -38057.282     -31.551823      1078776.9    
    224000   299.95742     -47514.991      1562.094      -38005.993     -1.7367375      1078402.2    
    224100   303.3622      -47665.231      1599.0197     -38029.103     -12.484225      1077482.5    
    224200   293.98887     -47525.336      1544.8921     -38191.667      23.403749      1076734.9    
    224300   293.47141     -47629.239      1578.7636     -38275.408      39.301783      1075646.4    
    224400   296.50535     -47637.618      1590.948      -38191.223     -10.443805      1075854.5    
    224500   300.3186      -47632.779      1578.2563     -38098.05      -14.113655      1077022.1    
    224600   297.83585     -47482.092      1545.7923     -38045.604      23.102834      1078641.1    
    224700   300.21779     -47412.303      1499.6082     -37958.893     -16.795032      1079662.5    
    224800   300.81183     -47398.696      1559.3421     -37869.814      26.410461      1078911.3    
    224900   303.70113     -47500.776      1575.7704     -37878.918     -20.144456      1078681      
    225000   296.31202     -47493.566      1543.4283     -38099.813     -12.007013      1078871      
    225100   295.6785      -47551.113      1572.1684     -38145.404      22.859951      1077241.7    
    225200   299.44089     -47626.905      1562.1744     -38131.512      64.704464      1074455      
    225300   300.19782     -47667.123      1554.1145     -38159.736      11.443227      1075705      
    225400   298.35289     -47628.11       1529.2889     -38194.427     -48.992119      1078666.9    
    225500   298.75537     -47554.387      1567.8785     -38071.451     -27.573836      1077882.3    
    225600   305.56988     -47613.254      1553.6695     -37963.988      68.365768      1074144.7    
    225700   300.09909     -47603.302      1601.5764     -38051.069      33.425073      1074515.6    
    225800   301.65004     -47652.584      1518.627      -38142.21      -41.251166      1077578.5    
    225900   297.9484      -47622.397      1598.5425     -38130.176     -56.5807        1078218.8    
    226000   302.9937      -47646.336      1549.1843     -38069.807      13.179285      1075500      
    226100   301.58926     -47716.192      1620.3441     -38105.711      22.703202      1074365.3    
    226200   295.48589     -47584.575      1598.7974     -38157.34       33.158251      1074981.3    
    226300   298.93767     -47665.757      1580.6451     -38165.225     -30.765015      1075488.5    
    226400   298.63177     -47658.803      1579.2033     -38167.817      9.0019574      1075152      
    226500   297.60742     -47635.336      1539.1101     -38211.581      0.63369232     1075592.7    
    226600   298.60136     -47741.445      1595.6691     -38234.799     -7.3437732      1074660.6    
    226700   298.71821     -47721.486      1601.18       -38206.233      33.260419      1072543.9    
    226800   300.30566     -47764.378      1567.0663     -38241.182      4.9009674      1072143.4    
    226900   297.94439     -47755.09       1504.0533     -38357.465      11.892082      1073541.2    
    227000   294.42817     -47724.086      1574.6601     -38349.011     -12.936004      1074988.4    
    227100   298.16281     -47656.854      1596.9177     -38160.578     -1.4844692      1075358      
    227200   299.9505      -47632.057      1578.1108     -38107.226     -24.844858      1075204.2    
    227300   304.60102     -47688.735      1555.869      -38062.937     -4.5373649      1074687.4    
    227400   300.13321     -47589.653      1537.1271     -38100.965     -28.181148      1077069      
    227500   296.15041     -47496.202      1517.5971     -38132.562     -43.430699      1078917.9    
    227600   305.35158     -47644.406      1537.4662     -38017.126      23.82239       1076099.9    
    227700   302.42568     -47622.506      1626.0529     -37984.157      58.33452       1073688.4    
    227800   297.16778     -47632.991      1616.4466     -38143.548     -16.550389      1075056.3    
    227900   298.62592     -47645.844      1556.7219     -38177.494     -26.213253      1076995.5    
    228000   300.56176     -47621.16       1544.4755     -38113.77      -6.2098709      1076522.4    
    228100   302.03658     -47623.034      1595.9376     -38025.109     -3.6174384      1075949.8    
    228200   300.21998     -47534.512      1594.6974     -37985.954     -1.0350056      1076172.7    
    228300   300.27384     -47468.661      1564.0963     -37949.278      37.922269      1076036.3    
    228400   298.0783      -47467.686      1520.1509     -38050.415     -12.230832      1076577.1    
    228500   300.10498     -47651.766      1548.4404     -38152.512     -26.047653      1075469.9    
    228600   302.31929     -47738.244      1536.431      -38192.335      8.6198852      1072741.9    
    228700   300.56269     -47709.991      1543.9186     -38203.133     -0.38445018     1072629.3    
    228800   297.20492     -47637.071      1521.466      -38241.625     -13.251546      1074754.1    
    228900   297.53512     -47696.72       1572.691      -38241.301     -60.762564      1075508.8    
    229000   300.07185     -47598.896      1541.0535     -38107.907      33.917047      1073839.2    
    229100   302.22771     -47630.459      1566.3422     -38057.065      17.461923      1074092.6    
    229200   298.76194     -47570.676      1541.4537     -38113.99       0.0033171797   1075298.4    
    229300   296.76011     -47661.227      1534.6104     -38264.421     -18.726531      1074939.6    
    229400   296.71972     -47798.211      1591.4362     -38345.649      9.9027222      1071908.1    
    229500   300.2591      -47772.383      1598.5776     -38218.909      43.587598      1069629.6    
    229600   299.3183      -47642.733      1622.1728     -38090.589      68.277752      1072285.3    
    229700   298.80442     -47542.792      1553.9965     -38072.439     -67.286818      1079005.8    
    229800   296.48737     -47419.325      1598.2486     -37966.106     -38.697371      1080445.7    
    229900   303.1703      -47467.652      1577.7472     -37857.881      18.718706      1077693.3    
    230000   304.46889     -47543.139      1562.6753     -37914.036     -18.125365      1075353.7    
    230100   302.5353      -47655.878      1601.8723     -38038.805     -17.468383      1073870.1    
    230200   300.07379     -47658.922      1576.7062     -38132.229      20.714691      1073062.8    
    230300   297.7295      -47654.452      1567.6473     -38198.926      43.315044      1073289.8    
    230400   297.1741      -47642.658      1587.2719     -38182.222     -11.436366      1074993.2    
    230500   302.9045      -47535.062      1527.7664     -37982.314      3.0976462      1075865.7    
    230600   302.6703      -47471.003      1513.8928     -37938.333      30.380365      1076037.1    
    230700   300.01184     -47563.095      1604.587      -38010.163     -29.723152      1076933.5    
    230800   298.65444     -47555.756      1539.9076     -38103.465     -24.730003      1076312.3    
    230900   296.59883     -47617.03       1566.878      -38192.229      23.369576      1073168.9    
    231000   299.63084     -47800.104      1556.01       -38305.842      9.1760775      1070624.4    
    231100   296.45275     -47838.52       1505.6398     -38478.827      27.074473      1070650.4    
    231200   296.1688      -47805.403      1542.3279     -38416.544      4.482602       1071847.8    
    231300   297.86344     -47728.465      1559.1915     -38277.846      25.766979      1072860.8    
    231400   298.04605     -47692.315      1590.9927     -38205.057     -26.084186      1074152      
    231500   301.34304     -47638.694      1539.2073     -38115.873     -15.027892      1074991.1    
    231600   302.26252     -47625.408      1544.6445     -38072.79      -2.5611883      1075225      
    231700   303.38347     -47739.363      1539.1862     -38162.505      0.52572019     1074567.4    
    231800   295.80164     -47741.105      1562.5794     -38341.722      0.16977601     1073995.3    
    231900   298.79326     -47814.744      1576.8286     -38321.854     -6.5124942      1072304.5    
    232000   304.15005     -47844.866      1553.1442     -38233.74       11.001292      1071077.6    
    232100   300.46905     -47714.901      1588.4258     -38166.017      6.230299       1073226.7    
    232200   300.66531     -47568.973      1569.7369     -38033.578      16.360747      1076686.5    
    232300   304.13286     -47522.59       1568.2285     -37896.836     -75.413978      1080066.2    
    232400   304.13777     -47497.807      1537.8266     -37902.324     -23.629576      1079576.1    
    232500   299.45205     -47563.418      1595.1404     -38034.763      10.509685      1076126.7    
    232600   299.00982     -47650.339      1596.1017     -38132.439      68.327953      1073402.6    
    232700   299.45935     -47661.089      1535.9806     -38191.4        27.402317      1074861.4    
    232800   296.15681     -47629.588      1566.7561     -38216.619     -46.472962      1077775.1    
    232900   299.98302     -47598.334      1563.8045     -38086.947     -34.369642      1076870.4    
    233000   305.32281     -47666.08       1583.9903     -37993.038      21.831781      1074436.6    
    233100   304.96136     -47683.843      1519.1849     -38085.183     -3.5251565      1073988.1    
    233200   301.046       -47667.161      1523.0326     -38168.384     -26.83425       1074348      
    233300   299.39958     -47643.799      1555.7216     -38155.952      9.943404       1073479.5    
    233400   305.72025     -47759.501      1538.7449     -38121.176      10.66636       1072841.4    
    233500   302.17059     -47730.851      1586.4883     -38138.825     -1.0675223      1073982.4    
    233600   299.7618      -47764.372      1568.2876     -38254.364     -53.389904      1074938.6    
    233700   299.31769     -47773.411      1558.1828     -38285.273      25.997064      1072548.4    
    233800   302.13431     -47763.642      1548.2077     -38210.857      12.266627      1071326.9    
    233900   301.95073     -47651.31       1575.3355     -38076.261      39.749558      1073669.2    
    234000   296.93358     -47496.465      1558.0702     -38071.603     -28.890157      1078477.3    
    234100   294.90158     -47522.497      1577.0982     -38132.441     -76.454015      1079803.1    
    234200   300.83844     -47695.581      1544.7663     -38180.569      8.0712059      1074451.1    
    234300   302.01649     -47733.371      1557.2286     -38174.686      80.226483      1070374.1    
    234400   300.92295     -47845.267      1600.9115     -38271.872      5.8020217      1072335.3    
    234500   296.8502      -47719.675      1513.3961     -38341.696     -2.7733569      1076224.4    
    234600   292.56938     -47474.138      1546.0854     -38176.883      7.2617335      1078276.9    
    234700   300.43217     -47624.599      1604.6124     -38060.505     -35.305254      1077522.1    
    234800   307.12429     -47692.329      1548.9321     -38006.618      21.232733      1075454.7    
    234900   299.14173     -47612.185      1609.2774     -38077.614     -2.5510106      1075890.5    
    235000   296.78846     -47594.136      1552.258      -38178.931     -7.5816294      1076856.1    
    235100   299.22289     -47622.492      1531.8425     -38163.206     -11.559636      1075623.9    
    235200   304.06603     -47673.661      1601.2189     -38016.687      59.890819      1072471.3    
    235300   305.22938     -47674.258      1539.1934     -38048.489      32.171822      1073189.7    
    235400   297.18523     -47674.316      1560.1827     -38240.674     -54.387046      1075964.6    
    235500   299.28808     -47674.382      1539.1117     -38206.099     -13.902787      1076013.8    
    235600   300.57468     -47620.952      1575.966      -38081.729      5.4586132      1075354.9    
    235700   301.39829     -47536.619      1527.3862     -38024.155      12.488642      1075328.8    
    235800   301.86461     -47570.474      1530.0622     -38042.98      -5.3198629      1075525.3    
    235900   297.21451     -47632.018      1541.9477     -38215.835     -28.334493      1074903.1    
    236000   297.96261     -47779.392      1578.2835     -38307.055      24.75919       1072491.6    
    236100   298.19116     -47757.09       1548.7855     -38308.195      14.030088      1071588.6    
    236200   301.02224     -47728.905      1527.6546     -38226.136      19.955456      1073448.8    
    236300   301.35084     -47610.568      1592.2924     -38034.455     -9.1852385      1076203.1    
    236400   299.98245     -47540.072      1589.549      -38002.956     -31.639065      1078581.1    
    236500   300.93664     -47535.112      1573.5538     -37988.712     -52.921953      1079351.2    
    236600   302.21735     -47552.627      1558.8598     -37986.99       28.980511      1076721.4    
    236700   299.37034     -47623.933      1551.5487     -38141.034      7.5895113      1075320.7    
    236800   296.24383     -47637.347      1555.7505     -38233.078      23.904153      1075457.3    
    236900   300.55627     -47622.507      1500.4324     -38159.305      0.13330066     1075840.8    
    237000   301.58083     -47567.836      1534.9133     -38043.009     -0.7025483      1075935.3    
    237100   298.1268      -47451.69       1522.4249     -38030.861      38.929554      1076432.4    
    237200   301.20626     -47539.348      1500.2308     -38059.127     -14.551338      1078151.2    
    237300   297.19549     -47460.146      1511.5096     -38074.906      1.091738       1078109.4    
    237400   300.21229     -47594.992      1569.2894     -38072.046      13.165785      1076279.7    
    237500   301.39028     -47642.279      1555.394      -38102.02       42.547269      1074966      
    237600   299.55766     -47701.941      1628.2271     -38137.401     -24.551581      1076227.7    
    237700   298.63493     -47570.079      1544.0194     -38114.194      0.53922694     1076951.4    
    237800   296.5463      -47518.783      1576.914      -38085.338      40.620877      1075849.9    
    237900   300.109       -47567.704      1536.1583     -38080.626      39.243969      1074962.9    
    238000   301.64679     -47670.071      1595.6011     -38082.809     -23.003272      1075124.3    
    238100   298.54375     -47591.212      1548.2278     -38133.533     -6.2711954      1075292.4    
    238200   298.65666     -47749.216      1570.9738     -38265.8       -9.4113262      1073760.4    
    238300   298.33383     -47801.415      1555.8781     -38341.647      5.6832107      1071826.1    
    238400   298.67038     -47732.68       1525.3045     -38294.569      25.785843      1072089.9    
    238500   300.42313     -47641.764      1568.9573     -38113.565      5.0654072      1074311.9    
    238600   298.90672     -47602.197      1590.3092     -38092.821     -41.547407      1076290.6    
    238700   300.18063     -47523.666      1492.0297     -38078.819     -15.390562      1076150.8    
    238800   302.35674     -47555.455      1541.983      -38003.002      12.674261      1074928.9    
    238900   306.15107     -47526.69       1550.3978     -37865.298     -4.207795       1076485.4    
    239000   301.79597     -47456.075      1543.285      -37917.177     -31.955806      1079988.4    
    239100   298.34119     -47535.804      1548.286      -38083.434     -92.536999      1080450.7    
    239200   298.85151     -47584.309      1555.3691     -38111.335     -10.177949      1075775.6    
    239300   303.29179     -47763.812      1605.5426     -38123.026      46.87399       1071376.6    
    239400   303.29319     -47797.827      1570.2225     -38192.324      2.94394        1072172.2    
    239500   297.77567     -47682.576      1528.2007     -38265.274     -15.792561      1073969.9    
    239600   297.20311     -47660.145      1546.1386     -38240.074      37.153011      1073700      
    239700   301.60197     -47607.261      1566.3797     -38050.408      30.804661      1073997.8    
    239800   299.30861     -47502.117      1568.2511     -38004.152      0.21468501     1076281.1    
    239900   302.65733     -47572.32       1546.0104     -38007.876     -35.482621      1077604      
    240000   299.65064     -47551.632      1545.9195     -38066.937     -7.6421512      1075456.2    
    240100   299.78162     -47734.372      1572.403      -38219.722      16.416737      1072405      
    240200   297.09301     -47730.401      1531.1338     -38328.251      24.136049      1071001.8    
    240300   295.18686     -47716.773      1602.1224     -38294.136      33.530227      1071386.3    
    240400   296.44294     -47622.482      1577.6224     -38191.067     -8.8482975      1073831.5    
    240500   298.2636      -47578.067      1593.5346     -38082.504     -19.358242      1075463.8    
    240600   304.08627     -47633.437      1543.0212     -38034.124     -23.028892      1075621.9    
    240700   300.29874     -47492.803      1526.281      -38010.576     -7.6205972      1076305.3    
    240800   301.95033     -47613.616      1567.501      -38046.412     -24.084695      1075977      
    240900   302.18505     -47693.126      1505.1742     -38182.031     -20.208082      1073827.6    
    241000   294.74289     -47657.148      1566.4258     -38281.969      53.041874      1071589.8    
    241100   299.03561     -47715.999      1519.9974     -38273.52       54.213879      1071717.5    
    241200   301.581       -47713.123      1581.663      -38141.542     -25.947994      1074154.2    
    241300   300.88085     -47541.495      1560.7684     -38009.358      15.025269      1076434.8    
    241400   299.35376     -47494.877      1557.3659     -38006.6       -33.120609      1078962.8    
    241500   301.18763     -47558.2        1583.9723     -37994.731     -58.805063      1078969.9    
    241600   299.4722      -47518.166      1587.259      -37996.858      32.224848      1076200.4    
    241700   301.95779     -47655.742      1522.2155     -38133.626     -14.708578      1075373.9    
    241800   299.47947     -47719.808      1549.5764     -38235.991     -14.356804      1076131      
    241900   296.50967     -47629.452      1585.7563     -38188.135     -4.6260157      1076742.4    
    242000   299.41944     -47505.554      1527.1442     -38045.759      34.523439      1076545.1    
    242100   299.91663     -47569.391      1604.6825     -38018.886      44.019755      1075892.5    
    242200   301.81834     -47570.783      1519.9626     -38054.614      13.591417      1077607.8    
    242300   299.06265     -47590.511      1565.5083     -38101.805     -47.813194      1079122.8    
    242400   298.64402     -47464.495      1597.5968     -37954.791      12.305197      1078013.3    
    242500   307.2221      -47562.656      1561.7848     -37861.501      25.895666      1076081.7    
    242600   302.32525     -47625.636      1608.0559     -38007.945      5.7067923      1075734      
    242700   297.82814     -47630.143      1607.6472     -38132.004     -14.603598      1076033.1    
    242800   301.67168     -47779.904      1601.7455     -38185.838     -32.993424      1074127.8    
    242900   298.73699     -47702.33       1560.3424     -38227.417      43.324167      1072022.3    
    243000   299.60875     -47777.227      1576.0395     -38263.521     -26.009447      1072913.2    
    243100   301.30414     -47783.754      1563.5564     -38237.615     -21.067467      1073817.5    
    243200   302.1903      -47696.26       1548.427      -38141.772      2.0857884      1073790.9    
    243300   300.82788     -47629.053      1576.944      -38082.144     -15.39231       1075096.4    
    243400   300.52692     -47540.682      1542.9755     -38035.715     -23.139034      1075359.2    
    243500   303.70973     -47639.239      1610.787      -37982.136     -27.573366      1074033      
    243600   298.89156     -47575.144      1544.1813     -38112.297      52.347381      1072749.5    
    243700   298.67955     -47681.95       1528.0727     -38240.829      33.518203      1072676.9    
    243800   296.9724      -47698.577      1556.0405     -38274.716     -19.723879      1073049.9    
    243900   299.41318     -47704.909      1595.474      -38176.95      -11.801074      1072921.6    
    244000   304.19224     -47696.992      1565.2391     -38072.654      13.106785      1072841.1    
    244100   300.53689     -47609.4        1544.9497     -38102.194      7.9498566      1073398.3    
    244200   301.06578     -47673.193      1579.724      -38117.201     -41.430626      1074926.8    
    244300   296.29196     -47528.912      1584.7773     -38094.342     -41.372912      1075679.4    
    244400   299.01891     -47499.32       1541.8744     -38035.406      21.753097      1074776.3    
    244500   300.88093     -47548.767      1572.6609     -38004.736      53.411229      1074330      
    244600   297.94945     -47581.981      1564.4842     -38123.791     -11.609166      1076681      
    244700   295.89427     -47614.857      1543.8966     -38231.703     -51.553652      1077498.7    
    244800   303.21389     -47712.956      1555.0735     -38124.703     -14.38488       1074573.3    
    244900   302.62715     -47702.439      1603.5747     -38081.23       80.280764      1071937.5    
    245000   297.71832     -47659.449      1563.9608     -38207.906      11.344924      1073839.1    
    245100   298.03796     -47668.172      1543.1315     -38228.989     -53.762477      1076491.1    
    245200   300.19547     -47619.656      1551.9445     -38114.501     -32.821683      1076243.6    
    245300   301.7303      -47554.321      1535.6998     -38024.748      36.159811      1074291      
    245400   303.89306     -47639.55       1559.703      -38028.674     -3.9418825      1074193.5    
    245500   299.46784     -47584.655      1517.4971     -38133.225      8.7972444      1076112      
    245600   298.406       -47613.859      1544.7287     -38163.329     -51.629619      1078087.3    
    245700   299.84821     -47468.797      1609.5461     -37915.241      12.921554      1077374.4    
    245800   299.45055     -47459.611      1625.7359     -37900.4        19.743609      1077247.1    
    245900   298.45407     -47480.537      1574.0261     -37999.436     -13.938806      1078512.9    
    246000   296.26451     -47431.553      1562.7405     -38019.746     -23.74891       1079404.1    
    246100   304.76342     -47458.286      1518.2342     -37865.821     -17.914691      1078929      
    246200   304.88394     -47488.426      1589.582      -37821.42       6.0071753      1078266.8    
    246300   303.05449     -47493.974      1562.0637     -37902.955      17.093539      1077493.5    
    246400   300.27423     -47502.138      1542.2157     -38004.625      7.7243469      1077172.2    
    246500   300.04522     -47532.665      1560.6849     -38022.75       0.55199151     1076444.9    
    246600   301.05092     -47567.192      1564.4617     -38026.856      7.9690123      1076203.9    
    246700   301.01743     -47607.43       1577.5098     -38054.933      1.473775       1076189.7    
    246800   296.80565     -47572.175      1575.2879     -38133.484     -34.399196      1076447      
    246900   295.53647     -47616.434      1584.8917     -38201.765     -14.386843      1076046.5    
    247000   298.92383     -47579.144      1549.6864     -38109.937      10.953676      1074906.7    
    247100   299.38968     -47515.175      1575.4436     -38007.869      38.68961       1074996.3    
    247200   300.84794     -47483.083      1537.3622     -37975.224      17.786003      1077013.9    
    247300   299.03159     -47451.011      1533.2162     -37995.42      -43.00221       1079269.4    
    247400   304.50868     -47606.257      1577.9095     -37960.865     -28.585674      1077323.4    
    247500   303.89391     -47569.567      1566.0655     -37952.307      37.586773      1074869.2    
    247600   300.98228     -47666.093      1641.734      -38050.303     -3.6180394      1075243.2    
    247700   297.15537     -47625.837      1594.4848     -38158.684     -57.438072      1076579.7    
    247800   297.86117     -47572.386      1554.4742     -38126.545      13.293464      1075608      
    247900   303.59895     -47652.239      1592.3519     -38016.506      13.076936      1074607.9    
    248000   303.51811     -47509.366      1623.2705     -37844.856      44.102245      1075690.2    
    248100   302.13914     -47330.434      1565.6192     -37760.109     -16.488917      1079800.7    
    248200   300.15245     -47314.279      1505.7049     -37856.503     -40.913632      1082398.8    
    248300   301.84616     -47573.567      1565.1278     -38011.496     -43.181615      1079443.2    
    248400   299.26375     -47716.22       1559.9276     -38227.766      17.160668      1074211.7    
    248500   297.43263     -47730.428      1587.9571     -38262.458      67.123028      1070802.2    
    248600   298.50796     -47715.647      1540.7447     -38266.4        45.28725       1072079.5    
    248700   297.0204      -47596.602      1555.8623     -38171.648     -10.375874      1076131.7    
    248800   300.21977     -47513.056      1526.5666     -38032.635     -46.74807       1078541.5    
    248900   300.62147     -47538.667      1584.334      -37989.836     -29.202542      1077724.6    
    249000   300.6746      -47573.106      1563.0613     -38044.14       27.42561       1075488      
    249100   300.08111     -47589.851      1478.1477     -38161.523      2.4307595      1075300.5    
    249200   298.83029     -47655.691      1548.5099     -38190.139     -2.881098       1074621.9    
    249300   300.7194      -47705.245      1558.4565     -38179.697      10.659912      1072825.5    
    249400   301.23642     -47711.827      1541.1761     -38189.862      25.60594       1073131.3    
    249500   296.28842     -47684.393      1622.5702     -38212.123     -41.513654      1075510.2    
    249600   296.19269     -47552.843      1553.6158     -38152.064     -11.823048      1076570.3    
    249700   299.76172     -47538.48       1600.7347     -37996.026      25.42666       1075783.9    
    249800   303.09796     -47546.424      1535.9859     -37980.331      29.976431      1075837.1    
    249900   300.92108     -47602.453      1545.101      -38084.917     -0.026663182    1077490.9    
    250000   298.97013     -47636.112      1566.3275     -38149.037     -46.193856      1077538.5    
    250100   297.9603      -47633.598      1585.9075     -38153.698      5.0372067      1075120      
    250200   300.19671     -47677.842      1562.6318     -38161.967      66.003385      1073135.8    
    250300   300.66411     -47731.232      1547.8334     -38217.772      2.4545806      1074724.6    
    250400   293.67935     -47603.121      1512.9887     -38309.556     -30.13558       1077128.8    
    250500   296.17835     -47656.691      1563.0875     -38246.82       23.172293      1075349.4    
    250600   304.2407      -47705.672      1554.0857     -38091.204      26.175954      1073966.6    
    250700   302.34778     -47690.815      1574.4775     -38106.105     -5.6062626      1076991.9    
    250800   299.00729     -47622.196      1525.4838     -38174.98      -64.725502      1079617.9    
    250900   298.65292     -47600.024      1547.4439     -38140.237      0.72345916     1077045.1    
    251000   304.14129     -47640.499      1610.8455     -37971.905      53.68679       1073615.9    
    251100   302.25034     -47610.218      1565.6825     -38036.884      19.9911        1075271.4    
    251200   298.40121     -47567.107      1529.1682     -38132.265     -37.480412      1078538.9    
    251300   295.09512     -47468.932      1522.3827     -38128.465     -5.3402459      1078790.9    
    251400   301.25093     -47614.032      1578.8794     -38053.98       19.420156      1077568.8    
    251500   303.81963     -47590.07       1569.4771     -37971.366     -0.84259617     1077079.5    
    251600   302.49368     -47519.584      1598.7243     -37906.762     -2.022186       1077597.3    
    251700   303.23145     -47499.787      1550.3316     -37915.811     -7.1478493      1078210.3    
    251800   301.00812     -47541.607      1527.8803     -38038.986      1.9113387      1077946.6    
    251900   301.09673     -47628.429      1529.0561     -38122.285     -11.521249      1076991.3    
    252000   299.59883     -47609.6        1521.2297     -38150.966     -3.9557078      1075629.7    
    252100   298.5261      -47601.193      1533.5717     -38158.638      11.699112      1074451.5    
    252200   299.57827     -47748.174      1569.4325     -38241.882     -27.106424      1073991.9    
    252300   294.89018     -47693.931      1556.0362     -38325.24       17.937459      1073271.4    
    252400   294.91709     -47728.249      1613.0371     -38301.844      19.110608      1072851.6    
    252500   298.98051     -47640.42       1568.0323     -38151.366      29.143499      1073479.6    
    252600   299.40015     -47540.431      1553.5526     -38054.738      3.9989917      1075793.2    
    252700   297.46351     -47434.757      1545.0911     -38008.834      20.787073      1077945.6    
    252800   298.55497     -47399.677      1528.2054     -37961.724      18.314039      1079227.7    
    252900   300.20384     -47469.559      1577.9225     -37938.204     -28.66773       1078803.9    
    253000   304.20854     -47601.093      1576.2516     -37965.311     -26.652302      1076793.5    
    253100   298.85863     -47541.043      1583.8383     -38039.412      30.135483      1074562.6    
    253200   303.72989     -47684.368      1542.2909     -38095.228      32.661742      1073437.7    
    253300   301.09138     -47680.062      1553.517      -38149.599      6.8868947      1074253.5    
    253400   297.77859     -47584.512      1517.6679     -38177.664     -13.4597        1076337.8    
    253500   300.66872     -47599.24       1592.79       -38040.702     -17.303602      1076881.6    
    253600   299.62939     -47494.983      1588.754      -37968.016      29.559398      1076194.2    
    253700   300.3871      -47534.948      1592.009      -37984.651     -4.9167562      1077092.6    
    253800   298.26616     -47454.529      1576.5657     -37975.867     -18.741192      1078338.8    
    253900   297.69937     -47387.735      1598.7223     -37901.932      15.833548      1077810.9    
    254000   305.94324     -47555.122      1576.2452     -37873.388     -18.109149      1076917.5    
    254100   300.48286     -47533.971      1534.2905     -38038.856      43.194228      1076396.4    
    254200   298.72736     -47659.694      1598.8426     -38146.536     -17.370348      1075659.6    
    254300   301.75648     -47763.342      1603.0379     -38165.737      4.7126781      1073550.2    
    254400   302.85345     -47842.947      1573.4277     -38245.889      13.666325      1072350.4    
    254500   297.01047     -47804.939      1543.2945     -38392.815     -8.2802073      1072608.4    
    254600   294.30752     -47723.281      1539.8283     -38386.234      63.275726      1071512.8    
    254700   299.98986     -47849.388      1587.7962     -38313.829      13.221344      1071617.8    
    254800   302.18146     -47818.085      1549.1538     -38263.105     -20.279677      1072963.5    
    254900   298.073       -47620.136      1531.7643     -38191.392     -4.5224487      1076179.9    
    255000   299.4938      -47577.397      1525.5457     -38117.231     -14.798772      1078592.7    
    255100   299.29316     -47590.403      1589.5477     -38071.55      -32.711424      1078444.6    
    255200   302.16685     -47608.442      1571.543      -38031.46       0.18943828     1076224.3    
    255300   303.19758     -47729.359      1581.3872     -38115.225      35.114789      1074030.3    
    255400   301.78965     -47692.092      1511.1457     -38185.5       -1.3510379      1075233      
    255500   296.46013     -47568.055      1529.8741     -38183.933     -16.062736      1077045.5    
    255600   298.11918     -47572.076      1550.443      -38123.43       10.333638      1076791.2    
    255700   300.80224     -47536.056      1540.835      -38025.935      26.205404      1076586.5    
    255800   300.85062     -47484.908      1614.1264     -37900.214     -1.7669983      1077590.7    
    255900   302.47393     -47340.047      1608.0511     -37718.421      22.112939      1079257.7    
    256000   301.64052     -47292.65       1571.0506     -37730.105     -31.086063      1081745.3    
    256100   298.06734     -47299.955      1592.9246     -37810.202     -22.325118      1081822.9    
    256200   302.72106     -47532.793      1610.3855     -37902.285     -7.8719515      1078477.8    
    256300   304.93291     -47690.816      1597.7237     -38014.371      16.13378       1074006.9    
    256400   301.06991     -47602.141      1523.5023     -38102.262      90.676487      1072458.5    
    256500   299.07999     -47625.496      1545.6683     -38156.17      -39.726821      1076593.5    
    256600   296.35846     -47525.134      1583.4853     -38090.094     -65.948779      1079736.3    
    256700   302.67437     -47500.759      1532.1079     -37949.766     -8.8356749      1078789.9    
    256800   300.0105      -47485.745      1558.9161     -37978.519      34.246285      1077676.6    
    256900   298.6267      -47546.367      1557.1036     -38077.615      5.9262103      1076847.2    
    257000   295.35346     -47626.11       1627.9953     -38173.185     -1.6646984      1075430.1    
    257100   299.97664     -47681.512      1533.9096     -38200.189     -32.089608      1074500.7    
    257200   299.47061     -47701.821      1599.8434     -38167.971      29.683271      1073315.4    
    257300   299.41056     -47551.635      1611.6709     -38007.549      48.795275      1073671.3    
    257400   304.65369     -47597.383      1580.5865     -37945.472      8.4968005      1076373.6    
    257500   300.09093     -47500.258      1539.7789     -38010.038     -63.933271      1080183.2    
    257600   294.38839     -47473.11       1587.1308     -38086.618     -37.487154      1079819.8    
    257700   301.66101     -47672.906      1540.2005     -38140.668      3.6472321      1075563.4    
    257800   301.53329     -47787.751      1532.8234     -38266.274      70.706024      1071498.5    
    257900   295.59988     -47790.893      1581.8133     -38377.622      37.581594      1071163.1    
    258000   295.49619     -47718.08       1553.5302     -38335.84      -12.204523      1073172.1    
    258100   299.25693     -47709.487      1581.789      -38199.353      4.4090247      1074054.8    
    258200   298.63156     -47642.106      1580.2488     -38150.08       14.273768      1074490.1    
    258300   296.67737     -47562.464      1533.6461     -38168.814      42.130895      1074082.4    
    258400   299.07605     -47761.904      1615.7887     -38222.562     -24.558048      1073857.2    
    258500   297.87402     -47763.491      1598.2735     -38273.51      -25.758234      1073955      
    258600   297.64499     -47690.875      1576.672      -38228.564     -28.501893      1074632      
    258700   301.16079     -47608.988      1520.8607     -38109.342      33.100132      1074793.2    
    258800   305.54755     -47662.298      1506.4097     -38060.883     -15.814635      1075719.7    
    258900   302.03079     -47652.027      1546.2112     -38103.981     -54.397247      1075778.4    
    259000   297.52236     -47723.416      1553.992      -38287.033     -13.781931      1073152      
    259100   298.11928     -47804.348      1566.7503     -38339.393      6.1692253      1070788.1    
    259200   300.51503     -47799.3        1536.9294     -38300.694      40.111292      1071162.4    
    259300   301.6171      -47715.857      1546.9031     -38178.079     -26.056723      1074917.7    
    259400   303.75596     -47601.362      1536.4642     -38017.358     -46.363077      1078501.9    
    259500   301.48582     -47513.838      1515.4631     -38010.978      6.5387907      1078866.7    
    259600   303.97169     -47707.377      1563.332      -38090.79       0.21595075     1075643.2    
    259700   300.15069     -47703.299      1531.8449     -38219.431      55.961623      1072718.8    
    259800   300.55729     -47780.802      1528.6224     -38289.383     -1.7091565      1072982.7    
    259900   293.9951      -47645.66       1556.9981     -38299.721      17.598972      1073697.8    
    260000   300.57868     -47725.836      1574.0953     -38188.378     -21.695711      1074370.6    
    260100   299.62105     -47542.631      1542.668      -38061.971      24.619114      1075620      
    260200   300.23857     -47571.128      1575.8387     -38040.937     -9.0964246      1077229.6    
    260300   300.2767      -47541.933      1556.7034     -38029.867      30.358455      1077420.8    
    260400   298.22683     -47534.431      1576.7475     -38056.629     -18.69167       1076958.4    
    260500   301.18086     -47784.159      1618.4865     -38186.355     -50.819669      1074996.2    
    260600   298.57883     -47820.433      1591.9197     -38318.133      54.878043      1072397.2    
    260700   297.72233     -47826.447      1590.5425     -38348.216      53.084613      1072688.7    
    260800   293.85209     -47619.441      1560.133      -38274.156      10.545446      1075139.8    
    260900   299.22772     -47631.171      1611.2385     -38092.361     -28.795919      1077567      
    261000   303.44322     -47661.459      1576.5677     -38045.636     -53.951393      1077647.5    
    261100   303.01153     -47712.162      1601.7108     -38082.633     -46.624222      1076126.4    
    261200   303.14919     -47778.073      1533.5695     -38213.039      6.2096807      1074195.4    
    261300   298.9562      -47744.63       1508.6501     -38315.602     -0.25394172     1073860      
    261400   299.7872      -47753.217      1505.0587     -38305.764      4.0434832      1073623.5    
    261500   303.5061      -47863.216      1570.6176     -38251.677     -20.113873      1074239.8    
    261600   300.48689     -47672.88       1568.0804     -38143.868     -38.549985      1076616.1    
    261700   302.66407     -47573.391      1561.8245     -37992.955     -33.130035      1077760.9    
    261800   301.92054     -47543.845      1544.7624     -38000.169     -20.367449      1077313.5    
    261900   299.38926     -47589.583      1572.5746     -38085.157      20.74681       1076297.7    
    262000   299.19841     -47690.065      1576.3311     -38186.939      1.9287362      1075776.8    
    262100   299.12948     -47681.955      1537.1946     -38219.792      12.972299      1074924.2    
    262200   298.5353      -47628.746      1583.1675     -38136.352      28.915924      1074121.1    
    262300   303.50018     -47607.027      1573.2869     -37992.977      48.65713       1075647      
    262400   299.88386     -47490.514      1545.9836     -37999.575     -45.712045      1080127.6    
    262500   298.65463     -47449.781      1547.745      -37989.648     -45.423416      1081947.7    
    262600   306.03426     -47473.964      1537.2544     -37828.809     -10.493788      1078925.6    
    262700   302.60105     -47388.989      1530.1105     -37841.936      85.352781      1076317.8    
    262800   297.68684     -47398.242      1509.5115     -38001.982      21.732349      1077842.6    
    262900   299.03391     -47445.034      1484.8218     -38037.775     -33.804102      1079667.7    
    263000   302.54492     -47569.969      1560.1951     -37994.318     -7.3070155      1078480.6    
    263100   308.63559     -47645.913      1583.858      -37885.237      30.85244       1076280.5    
    263200   305.53553     -47544.12       1535.6931     -37913.74      -3.1629736      1077556.7    
    263300   296.29064     -47518.052      1566.466      -38101.828     -51.083494      1079633.6    
    263400   299.05627     -47592.32       1570.4111     -38098.879     -11.23949       1077686.8    
    263500   305.51162     -47725.209      1606.1019     -38025.053      37.731822      1074047.9    
    263600   303.49463     -47640.511      1532.8522     -38067.042      38.481396      1072983.7    
    263700   299.90686     -47686.582      1498.2324     -38242.785     -17.074894      1075245.3    
    263800   296.9725      -47619.173      1548.177      -38203.173     -36.117486      1076959.6    
    263900   300.33728     -47623.682      1579.3639     -38087.35       18.721701      1075345.6    
    264000   302.54472     -47660.369      1563.744      -38081.175      35.733749      1074216.3    
    264100   298.63752     -47645.935      1576.5741     -38157.426      3.4362592      1075724.3    
    264200   296.41969     -47593.053      1560.4904     -38179.385     -54.960271      1077712.3    
    264300   301.61176     -47591.516      1563.3635     -38037.419      24.01446       1075336.4    
    264400   305.49361     -47668.931      1582.3822     -37992.972      25.084351      1072642.4    
    264500   299.45568     -47673.429      1577.4993     -38162.319      14.674873      1073189.6    
    264600   296.37853     -47591.501      1512.0981     -38227.316      2.4058242      1075440.5    
    264700   297.69771     -47608.459      1549.1261     -38172.297      35.373514      1075590.2    
    264800   304.98816     -47703.611      1577.1792     -38046.246      8.6951327      1074148.6    
    264900   304.0675      -47691.288      1577.1705     -38058.324     -11.788453      1073907.8    
    265000   300.81018     -47683.957      1561.2447     -38153.216     -14.252691      1074362.3    
    265100   297.94512     -47623.421      1568.3736     -38161.456      2.5089801      1074369.2    
    265200   298.05331     -47599.771      1593.5688     -38109.744      18.340851      1074429.4    
    265300   300.28887     -47537.032      1566.766      -38014.581     -18.170379      1076329.1    
    265400   299.24145     -47489.133      1571.4686     -37989.729     -10.505913      1078452.8    
    265500   301.59659     -47584.315      1554.8902     -38039.094     -69.516529      1079547      
    265600   295.49518     -47572.643      1578.9101     -38165.049      28.713494      1076781.5    
    265700   300.07421     -47789.566      1622.0397     -38217.529      36.002153      1073022.9    
    265800   299.43458     -47767.596      1591.0349     -38243.509      45.405084      1073068.1    
    265900   299.24123     -47678.759      1558.1518     -38192.678     -27.848945      1077273.5    
    266000   296.68676     -47370.163      1513.5437     -37996.367     -27.088652      1080950.1    
    266100   302.79781     -47420.321      1521.6822     -37876.483     -39.928821      1081090.5    
    266200   302.15918     -47437.825      1600.3686     -37832.22       9.3288295      1077828.9    
    266300   305.08387     -47501.954      1482.6411     -37936.592      31.707636      1075114.7    
    266400   297.66407     -47570.546      1596.3256     -38088.075      8.8579066      1075253.3    
    266500   298.54697     -47582.206      1566.0385     -38106.631      11.890781      1076292.3    
    266600   297.50658     -47502.063      1573.729      -38046.362      8.0710264      1077968.3    
    266700   301.09236     -47451.833      1577.8605     -37897          5.6986764      1078999.2    
    266800   302.19303     -47480.797      1601.1524     -37873.512     -7.808304       1079308      
    266900   301.38893     -47528.482      1589.1421     -37954.51      -14.248824      1078909.2    
    267000   300.94048     -47567.833      1575.8093     -38019.075     -0.021811465    1077344.9    
    267100   299.55887     -47607.427      1576.8855     -38094.197      28.568052      1074459.2    
    267200   302.14705     -47749.549      1559.6805     -38184.953      27.671487      1072875.8    
    267300   300.64822     -47713.584      1527.7683     -38220.611     -3.8614337      1073785.3    
    267400   297.80923     -47597.991      1533.6078     -38174.393     -15.552416      1075463.8    
    267500   300.10496     -47549.373      1535.5311     -38063.029      15.706634      1075739.4    
    267600   301.15364     -47603.376      1588.8249     -38035.956      26.923391      1074957.1    
    267700   298.48107     -47527.87       1540.9162     -38079.164      63.321387      1074577.9    
    267800   300.21183     -47611.049      1507.7103     -38149.695     -7.2114278      1075818.7    
    267900   298.95943     -47652.762      1559.5978     -38172.701     -17.000018      1076112.9    
    268000   299.89957     -47517.085      1531.8144     -38039.899      54.50071       1075227.8    
    268100   303.06866     -47510.276      1571.3564     -37909.588     -5.7464396      1076554.4    
    268200   300.90473     -47408.706      1513.7077     -37922.997      8.0490688      1078168.3    
    268300   301.29989     -47551.105      1530.3867     -38038.248     -78.336903      1078773.3    
    268400   297.84984     -47618.267      1585.5711     -38141.629     -8.4830377      1075800.1    
    268500   298.64007     -47800.63       1602.4479     -38286.18      -1.5781868      1071387.7    
    268600   297.62043     -47935.949      1587.958      -38463.002      75.205082      1068515      
    268700   296.51552     -47869.834      1578.3331     -38435.785      36.406972      1070414      
    268800   297.40257     -47735.122      1573.0157     -38282.889     -32.083898      1075579.1    
    268900   299.00726     -47638.789      1570.9206     -38146.137     -74.127684      1079498.6    
    269000   299.2739      -47552.351      1612.3797     -38011.176     -16.38222       1078090.3    
    269100   303.24846     -47612.431      1615.6592     -37962.678      37.273391      1074062.8    
    269200   302.55582     -47726.918      1605.3576     -38105.816      27.970225      1072970.7    
    269300   298.51273     -47657.051      1574.573      -38173.849     -1.3115409      1075473.7    
    269400   295.10477     -47551.784      1585.2191     -38148.224     -34.757912      1076737.2    
    269500   301.66794     -47604.055      1565.6462     -38046.187      13.313421      1075262.5    
    269600   302.98123     -47605.063      1590.7508     -37987.297      23.177334      1075419.4    
    269700   298.66054     -47566.571      1571.8698     -38082.157     -50.001792      1077572.9    
    269800   299.21372     -47657.045      1545.8324     -38184.012     -44.370041      1076948.2    
    269900   301.82167     -47753.552      1567.5129     -38189.745     -1.8751281      1073631.8    
    270000   300.60276     -47759.005      1620.7962     -38174.207      17.584007      1072131.1    
    270100   300.08155     -47665.046      1552.6292     -38162.225      21.269738      1073311.9    
    270200   299.74134     -47673.655      1562.2912     -38170.185     -23.635803      1075180.1    
    270300   299.51089     -47633.291      1566.2137     -38132.003     -24.995105      1075079      
    270400   304.22326     -47666.504      1545.4027     -38061.181      4.4023518      1072885.5    
    270500   305.0111      -47684.105      1562.8931     -38040.418      1.4594786      1072806.6    
    270600   299.10452     -47704.379      1587.4512     -38192.621     -43.550641      1074859.4    
    270700   296.51347     -47612.309      1528.6819     -38227.965      29.446807      1075234.3    
    270800   300.58553     -47653.39       1580.5399     -38109.306     -2.2096127      1074649.9    
    270900   303.08992     -47670.053      1574.0698     -38066.089     -19.972305      1074695.7    
    271000   301.36098     -47699.317      1594.9273     -38120.3       -3.8141082      1074704.7    
    271100   300.47614     -47777.429      1595.7995     -38220.983     -11.87347       1073835.7    
    271200   300.05916     -47794.186      1533.0952     -38311.491      16.209974      1071556.6    
    271300   294.28006     -47724.996      1594.2639     -38334.241      49.300684      1070463.2    
    271400   297.03962     -47727.762      1556.7893     -38301.372      3.2115713      1072112.2    
    271500   297.42882     -47665.535      1572.7496     -38212.873      9.0674638      1073967.7    
    271600   299.62599     -47580.25       1513.4176     -38128.709     -1.3112606      1075352.4    
    271700   301.60666     -47630.134      1554.1571     -38085.38       7.8529769      1075414.6    
    271800   299.56423     -47649.63       1534.6869     -38178.456     -15.654469      1074697.7    
    271900   297.54476     -47790.426      1562.0551     -38345.387     -21.390381      1072277.2    
    272000   298.00259     -47785.13       1562.4612     -38327.556      40.097939      1069899.5    
    272100   301.1285      -47765.749      1583.8689     -38203.951      16.389576      1071944.3    
    272200   297.12959     -47548.692      1553.7569     -38122.95       18.114786      1075894.4    
    272300   294.17508     -47445.192      1598.0495     -38053.433     -19.268666      1078364.9    
    272400   299.48724     -47471.087      1573.3179     -37963.322     -25.842052      1078286.6    
    272500   302.38114     -47546.77       1604.8479     -37930.805     -9.7663106      1076797.1    
    272600   299.10143     -47469.897      1542.422      -38003.249      74.91453       1075616.1    
    272700   298.00816     -47591.445      1506.337      -38189.847     -24.475843      1075914.5    
    272800   297.72322     -47652.695      1567.4697     -38197.513      3.6940615      1074525.6    
    272900   298.31437     -47593.106      1541.8998     -38147.833      65.792879      1072980.8    
    273000   301.72716     -47680.98       1586.8933     -38100.296      0.5222419      1074758.7    
    273100   302.08875     -47621.997      1580.1864     -38038.44      -22.366072      1076706      
    273200   301.12966     -47448.88       1586.5964     -37884.324     -2.8858526      1077995      
    273300   304.36203     -47458.34       1537.2049     -37857.538     -8.6742194      1078754.1    
    273400   302.99122     -47565.625      1541.1741     -37997.171     -20.121844      1078090.2    
    273500   299.69657     -47607.782      1598.4385     -38069.351      17.252627      1076330      
    273600   300.19717     -47616.965      1578.9175     -38084.792      1.1842604      1075016.1    
    273700   298.78319     -47638.127      1595.2778     -38127.055     -4.9409326      1075026.4    
    273800   297.02584     -47673.047      1553.3493     -38250.461     -24.063228      1074717.2    
    273900   296.8723      -47812.553      1590.2259     -38357.158     -26.542121      1072555.4    
    274000   296.81933     -47944.953      1586.3157     -38494.872      35.570153      1069887.6    
    274100   295.95252     -47924.667      1524.8575     -38559.01       18.842161      1070058.3    
    274200   297.47289     -47828.127      1557.0206     -38390.026      6.1466627      1072220.8    
    274300   299.69435     -47768.169      1550.3729     -38277.862     -18.203766      1075182.6    
    274400   299.42012     -47643.075      1548.3955     -38162.01      -13.315324      1077267.6    
    274500   300.39857     -47554.28       1558.588      -38037.1       -17.862738      1078587.9    
    274600   299.97972     -47534.484      1591.3567     -37995.633     -10.44998       1078203.1    
    274700   301.02351     -47567.171      1584.3044     -38007.719      40.838831      1076464.1    
    274800   297.95112     -47619.661      1528.2908     -38197.62      -11.346826      1076376      
    274900   294.63026     -47646.164      1590.4269     -38249.968      6.3929316      1075016      
    275000   299.99353     -47698.918      1561.5496     -38189.508      13.448486      1073341.2    
    275100   298.88961     -47555.887      1536.0057     -38101.267      43.63715       1074208.8    
    275200   302.8733      -47576.659      1557.3623     -37995.142     -7.4270258      1076968.3    
    275300   304.74678     -47454.681      1560.6706     -37820.22      -52.187994      1079967.7    
    275400   303.97464     -47416.333      1552.0969     -37810.902     -52.588224      1079902.1    
    275500   303.21851     -47480.756      1496.2956     -37951.159      6.9062564      1076821      
    275600   302.45348     -47609.566      1549.6253     -38046.908      27.082666      1073520.8    
    275700   299.57486     -47622.764      1505.6748     -38180.321      46.919189      1073111.9    
    275800   295.82175     -47622.677      1525.1306     -38260.21       8.1149148      1074931.9    
    275900   299.72745     -47721.073      1573.57       -38206.692     -13.787844      1075170.1    
    276000   296.92839     -47507.363      1578.2636     -38062.445      45.54786       1074394.1    
    276100   304.22346     -47698.374      1596.1135     -38042.334     -5.8798821      1075305.1    
    276200   299.26025     -47586.779      1570.0444     -38088.301     -19.856989      1077335.7    
    276300   298.34556     -47623.432      1644.6306     -38074.602     -55.385164      1077663.3    
    276400   299.82369     -47497.31       1566.5612     -37987.388      49.862706      1075272.2    
    276500   301.56547     -47543.897      1559.3498     -37995.04       12.614913      1074870.4    
    276600   298.1806      -47547.248      1613.384      -38034.034     -12.164232      1076624.7    
    276700   297.41274     -47481.006      1576.2102     -38025.309     -15.186443      1077540.7    
    276800   301.47552     -47526.399      1519.57       -38019.705      7.9613291      1075523.4    
    276900   302.3727      -47663.183      1511.0629     -38141.227      36.391025      1072282.7    
    277000   299.86072     -47812.077      1585.5955     -38282.139     -4.78111        1071309.5    
    277100   298.96787     -47786.392      1561.1898     -38304.515      9.2814912      1072035.1    
    277200   297.59163     -47689.218      1569.6371     -38235.355     -25.189802      1074851.5    
    277300   301.92383     -47643.12       1580.6786     -38063.441      26.594924      1075530.5    
    277400   301.0004      -47576.463      1559.0363     -38042.891     -22.435904      1076919.9    
    277500   298.118       -47500.295      1543.8023     -38058.321     -47.578005      1078186.7    
    277600   300.99523     -47550.405      1579.9097     -37996.096     -23.919674      1076596.7    
    277700   307.253       -47550.428      1545.2875     -37864.951      26.086816      1074581.1    
    277800   300.79137     -47527.692      1618.3994     -37940.295      17.538494      1075749.9    
    277900   299.84962     -47539.313      1506.686      -38088.579     -48.543122      1078743      
    278000   301.35217     -47570.08       1490.5939     -38095.63       2.236794       1077114.3    
    278100   301.88936     -47626.461      1578.6375     -38049.736      46.36531       1073329.6    
    278200   300.31739     -47652.954      1561.8952     -38134.618     -2.3691153      1072794.6    
    278300   297.73593     -47693.331      1562.6373     -38242.644     -36.509486      1073917.1    
    278400   296.31886     -47601.775      1589.0104     -38162.259      5.6677088      1073308.6    
    278500   301.38091     -47549.923      1560.7116     -38004.595      27.507534      1074220.6    
    278600   300.39567     -47463.308      1493.0724     -38011.721     -15.235457      1077539.8    
    278700   299.02883     -47438.814      1526.9232     -37989.589     -26.749175      1078676      
    278800   300.59642     -47482.311      1636.9775     -37881.501      17.141332      1076388.1    
    278900   307.24594     -47584.212      1576.1407     -37868.07       38.646244      1074956.5    
    279000   300.97371     -47568.332      1516.4882     -38078.015     -40.490718      1077142.7    
    279100   297.56527     -47495.36       1525.6043     -38086.228     -18.18573       1077610.8    
    279200   300.99393     -47524.53       1527.338      -38022.827      12.652958      1075791.4    
    279300   300.57857     -47487.589      1584.9241     -37939.305      36.863591      1074881.8    
    279400   298.97433     -47427.738      1534.8043     -37972.076      25.720412      1075959.7    
    279500   295.87301     -47538.237      1555.1743     -38144.369     -17.872195      1076979.6    
    279600   297.65424     -47618.091      1559.6497     -38172.557     -36.509307      1074957      
    279700   303.5439      -47747.944      1566.4181     -38139.604      43.763997      1071684.9    
    279800   304.86748     -47832.492      1594.9025     -38160.602     -15.691026      1072398.1    
    279900   294.12553     -47698.536      1575.7353     -38330.404     -34.359882      1075442.6    
    280000   299.1969      -47793.95       1572.336      -38294.859     -40.844747      1074486.8    
    280100   303.20394     -47781.459      1596.3432     -38152.201      24.04505       1071252.6    
    280200   304.08215     -47751.786      1573.5575     -38122.046     -1.8457844      1071525.8    
    280300   299.78371     -47611.33       1537.1556     -38131.873     -31.975386      1075500.8    
    280400   301.03422     -47558.607      1553.673      -38029.502     -40.234041      1078196.9    
    280500   303.5103      -47447.544      1540.6769     -37865.835      1.0303837      1077621      
    280600   299.36567     -47449.279      1603.8905     -37914.162      32.741887      1075487.1    
    280700   304.89798     -47628.175      1534.2995     -38016.079      6.8023696      1075557.8    
    280800   300.34319     -47590.542      1522.3682     -38111.049     -32.782255      1076998.3    
    280900   300.23582     -47562.308      1498.7665     -38109.262     -43.736431      1076752      
    281000   301.2144      -47639.011      1587.9589     -38070.846      34.701165      1074392.6    
    281100   301.36113     -47613.651      1544.5945     -38084.963      27.275824      1074362.6    
    281200   297.68055     -47658.333      1518.5517     -38253.2       -47.436084      1076055.1    
    281300   298.10668     -47731.147      1589.3688     -38243.907     -9.5888334      1074178.9    
    281400   301.75982     -47739.352      1611.7755     -38132.921      36.599018      1071288.5    
    281500   303.01329     -47782.687      1597.4377     -38157.385      8.2759065      1072564.7    
    281600   296.36967     -47713.841      1557.2789     -38304.71      -48.732698      1076403.8    
    281700   297.00669     -47660.059      1530.7404     -38260.59      -51.897815      1076758.9    
    281800   300.64301     -47662.638      1578.3204     -38119.25       37.912011      1074377.8    
    281900   304.34183     -47710.822      1509.416      -38138.344      27.702167      1073204.2    
    282000   302.96324     -47793.913      1545.6007     -38221.775     -9.9232206      1073663.3    
    282100   295.58717     -47717.611      1555.8585     -38330.631     -24.529357      1074986      
    282200   296.5198      -47679.582      1536.6118     -38287.141      25.842905      1073423.3    
    282300   305.08105     -47773.914      1550.4883     -38140.779      10.287974      1071341.3    
    282400   300.56798     -47686.099      1578.892      -38144.127      69.928872      1071503.3    
    282500   302.00163     -47761.738      1567.3923     -38193.284     -74.340513      1075481.6    
    282600   295.89057     -47556.646      1577.016      -38140.471     -56.01827       1077323.6    
    282700   301.89418     -47583.58       1604.1876     -37981.177     -20.952645      1074741.1    
    282800   303.4039      -47632.239      1580.9504     -38013.076      55.592126      1071859.3    
    282900   300.04262     -47624.299      1537.7808     -38137.357      25.813587      1073072.2    
    283000   296.83688     -47659.661      1589.8185     -38205.612     -30.432234      1075233.8    
    283100   299.04778     -47588.805      1555.4032     -38110.598      27.419099      1074476.1    
    283200   300.31661     -47641.102      1623.2685     -38061.414      43.290397      1072988.5    
    283300   300.09692     -47593.544      1542.7008     -38100.244      28.352289      1073572.4    
    283400   297.59717     -47553.064      1556.825      -38111.866     -24.821975      1076315.7    
    283500   297.37558     -47472.728      1526.151      -38068.075      12.365222      1077774.1    
    283600   303.82899     -47552.57       1525.6646     -37977.43      -14.516498      1077913.4    
    283700   300.52859     -47443.551      1531.6221     -37949.893      28.816876      1077740.7    
    283800   298.79801     -47506.689      1548.0639     -38042.438     -13.066464      1079097.8    
    283900   295.7094      -47561.576      1576.3931     -38150.824     -59.716117      1078472.8    
    284000   297.85194     -47519.689      1575.4076     -38053.159      31.475661      1074847.5    
    284100   308.63552     -47736.03       1568.0167     -37991.196      38.765067      1072796.6    
    284200   301.22396     -47685.612      1570.6341     -38134.519      3.7352615      1075263.8    
    284300   293.46107     -47458.367      1523.8751     -38159.699     -13.291838      1079282.1    
    284400   299.41485     -47542.697      1560.8797     -38049.288     -52.487754      1078969.4    
    284500   301.58486     -47574.049      1635.4326     -37948.596      35.609605      1075706.9    
    284600   301.52484     -47598.626      1640.2805     -37969.916      45.657837      1074894.1    
    284700   296.75774     -47532.181      1582.4596     -38087.588      20.588999      1076841.6    
    284800   298.23581     -47578.42       1534.9386     -38142.189     -13.753428      1078213      
    284900   299.06446     -47522.142      1594.9121     -38003.984     -8.5137266      1077415      
    285000   302.64649     -47492.469      1601.3609     -37872.962      26.82103       1076805.2    
    285100   300.18373     -47414.953      1544.138      -37917.916      38.647576      1078531.2    
    285200   297.64674     -47460.366      1540.8868     -38033.793     -41.920098      1080461.8    
    285300   300.67581     -47540.941      1561.4303     -38013.575     -17.504412      1078955.4    
    285400   305.02288     -47547.268      1556.0564     -37910.106      29.592346      1076432.4    
    285500   303.11176     -47593.405      1593.8005     -37969.131      6.4047871      1076293.1    
    285600   297.75528     -47613.539      1566.6213     -38158.356     -18.034907      1076949.5    
    285700   298.44476     -47678.623      1581.8644     -38189.93      -2.4497759      1076163.1    
    285800   299.08266     -47655.568      1570.1581     -38161.681      45.145111      1074082.3    
    285900   302.62649     -47686.591      1544.898      -38124.076      38.366589      1073334.4    
    286000   298.83828     -47710.561      1597.5701     -38195.737     -33.096225      1074529.1    
    286100   296.30504     -47677.457      1533.3656     -38293.952     -30.189034      1075170.7    
    286200   301.46996     -47741.752      1555.9095     -38198.866     -10.797748      1073285.3    
    286300   301.53518     -47637.801      1558.9601     -38090.137      74.506751      1072467.8    
    286400   302.29371     -47691.477      1550.423      -38132.254     -12.968376      1075564.6    
    286500   296.47465     -47554.042      1537.4376     -38161.971     -46.520119      1078502.8    
    286600   298.75916     -47541.169      1550.3058     -38075.705      0.88783937     1077121.1    
    286700   306.89733     -47676.409      1557.5638     -37988.079      60.596852      1073979.4    
    286800   301.27544     -47608.114      1519.0221     -38107.27      -33.180111      1075771      
    286900   298.41154     -47640.241      1516.1741     -38218.119     -63.817565      1076896.1    
    287000   298.61288     -47567.523      1535.1562     -38121.084      18.873045      1074849.4    
    287100   303.26558     -47678.772      1596.0354     -38048.188      21.033649      1072887.8    
    287200   302.87321     -47757.787      1583.9815     -38149.652     -14.437488      1073256      
    287300   297.72783     -47663.371      1512.2745     -38263.262     -16.073422      1074252.6    
    287400   297.85604     -47700.566      1577.3306     -38232.004      1.2773718      1073128.5    
    287500   302.66941     -47734.868      1548.2231     -38167.891      69.734662      1070915.2    
    287600   301.96734     -47720.301      1537.2162     -38182.932      37.974741      1072101.8    
    287700   296.41484     -47723.146      1519.3635     -38350.734     -48.395763      1075419.9    
    287800   296.84858     -47723.338      1496.7122     -38362.086     -33.650223      1075161      
    287900   299.54931     -47693.322      1546.0768     -38211.154      47.79247       1072104.1    
    288000   305.01709     -47865.016      1582.2914     -38201.773     -8.9591105      1071245.6    
    288100   299.21482     -47754.595      1555.9139     -38271.451     -10.425373      1072832.9    
    288200   297.38545     -47712.114      1557.309      -38276.041     -49.599361      1074344.9    
    288300   301.75056     -47635.242      1562.8917     -38077.941      12.126362      1074400.1    
    288400   303.0711      -47630.125      1570.1646     -38030.564     -20.543004      1074651.2    
    288500   300.62581     -47640.813      1606.0682     -38070.133      6.9287329      1074444      
    288600   299.62582     -47688.879      1579.1931     -38171.568      9.6123071      1074465.1    
    288700   298.49499     -47753.58       1564.6533     -38280.768     -53.9127        1074180      
    288800   302.41328     -47778.553      1549.4236     -38217.161      11.154232      1072000.6    
    288900   303.048       -47660.704      1616.9961     -38014.923      49.675236      1071614.5    
    289000   301.68107     -47624.094      1576.41       -38055.115     -3.5911133      1074251.5    
    289100   298.36429     -47578.276      1541.1049     -38132.475     -35.180449      1077392.9    
    289200   298.05539     -47526.256      1493.9265     -38135.817     -6.1132568      1077240.7    
    289300   302.5041      -47533.769      1548.4134     -37970.981      29.20141       1074904      
    289400   306.71331     -47567.872      1529.1045     -37912.877      7.5062721      1074047.5    
    289500   302.01381     -47602.911      1569.8393     -38031.687     -36.571988      1075837.5    
    289600   296.7603      -47529.652      1561.4994     -38105.952      6.9992789      1076672.1    
    289700   297.90807     -47518.951      1528.7743     -38097.567      27.825421      1075384.9    
    289800   305.44845     -47646.836      1527.4527     -38027.003      53.468238      1073421.6    
    289900   300.09437     -47637.651      1598.15       -38088.969     -29.229726      1074733.9    
    290000   295.23666     -47610.924      1555.6312     -38233.458     -38.028427      1075955.2    
    290100   300.52529     -47670.539      1526.8459     -38181.744      45.780969      1072640.2    
    290200   302.07079     -47689.919      1585.5559     -38101.469      70.000167      1070089.1    
    290300   296.7067      -47649.201      1595.3816     -38193.038     -7.6533382      1073073.8    
    290400   293.88894     -47677.696      1551.0222     -38340.545     -73.84533       1075839.5    
    290500   298.77781     -47745.82       1571.5844     -38258.584     -49.183586      1073027.5    
    290600   299.51644     -47751.956      1618.8527     -38197.882      77.356684      1068523.1    
    290700   301.08643     -47766.205      1536.1777     -38253.212      51.199198      1069580.9    
    290800   295.31473     -47753.531      1600.3766     -38329.252     -50.995487      1074524.5    
    290900   295.44376     -47482.944      1532.0096     -38123.613     -3.0901608      1076425.6    
    291000   297.79565     -47450.462      1545.7451     -38015.085      44.081713      1076075.6    
    291100   301.03847     -47450.626      1457.9038     -38017.178      29.248472      1076697.4    
    291200   296.8859      -47436.748      1519.1306     -38052.089     -26.578435      1077286.9    
    291300   299.49326     -47531.36       1527.5013     -38069.252      50.151942      1074989.5    
    291400   295.98432     -47513.456      1503.2578     -38168.555      57.350131      1073479.7    
    291500   295.29208     -47648.263      1550.0528     -38274.907      19.987513      1073749.8    
    291600   299.02176     -47660.291      1531.192      -38206.984     -0.14021232     1075129.8    
    291700   299.82767     -47444.757      1487.9232     -38013.367      2.846287       1076674.9    
    291800   300.5346      -47488.063      1563.9505     -37961.917     -36.880434      1077550      
    291900   303.10065     -47583.855      1622.863      -37930.813     -12.520828      1076342.7    
    292000   299.55021     -47544.833      1603.3451     -38005.373      13.847621      1075745.5    
    292100   296.15329     -47489.72       1526.7517     -38116.849      10.634207      1075741.7    
    292200   297.68085     -47648.351      1573.1785     -38188.583     -7.9608814      1074684.5    
    292300   299.34341     -47704.049      1544.4149     -38228.998      4.8061104      1073217.7    
    292400   302.28327     -47812.027      1552.2993     -38251.205     -3.0543657      1072609.1    
    292500   300.03963     -47700.774      1591.8556     -38159.836     -20.96328       1074643.7    
    292600   298.61113     -47482.987      1571.141      -38000.61      -31.838563      1078679.6    
    292700   298.59087     -47342.238      1530.6557     -37900.883     -12.094399      1080336      
    292800   298.55431     -47311.194      1590.0367     -37811.426      33.094469      1078703.6    
    292900   301.93897     -47392.186      1562.8995     -37829.884      0.72340574     1077468.3    
    293000   298.63229     -47430.256      1515.2576     -38003.202      7.2956802      1076823.3    
    293100   298.18644     -47471.534      1510.4636     -38061.086      32.53822       1074966.9    
    293200   303.45325     -47680.102      1590.5747     -38050.007      15.200866      1073585.6    
    293300   300.374       -47614.492      1508.7593     -38147.792     -10.183388      1074402      
    293400   293.32512     -47541.238      1546.217      -38223.83      -1.7342976      1075034.2    
    293500   298.21407     -47589.111      1544.3016     -38144.093      63.290081      1073607.4    
    293600   302.86657     -47554.105      1569.7216     -37960.406      24.104521      1074548.9    
    293700   301.33378     -47451.75       1503.5802     -37964.801     -0.10255123     1078330.7    
    293800   297.1244      -47431.411      1555.8632     -38003.701     -75.658353      1081078.5    
    293900   302.25043     -47559.519      1563.2426     -37988.623      2.8881825      1077772.1    
    294000   302.58165     -47652.754      1560.384      -38075.942      24.42863       1073688.7    
    294100   299.07206     -47755.189      1588.9884     -38242.753      4.4933032      1072385      
    294200   298.73819     -47744.023      1592.1359     -38237.285     -5.692412       1073856.5    
    294300   296.38705     -47523.711      1538.2323     -38133.166      14.822607      1076208.3    
    294400   299.03787     -47488.156      1572.9132     -37992.701     -9.8795343      1078447.8    
    294500   303.88059     -47507.955      1501.7421     -37955.371     -68.810731      1079375.5    
    294600   300.01616     -47569.514      1621.2024     -37999.852      3.1796585      1076329.2    
    294700   301.41486     -47732.376      1603.0982     -38143.762      14.266501      1073313.3    
    294800   295.02842     -47662.998      1627.4689     -38219.212      11.612821      1073390.2    
    294900   294.54364     -47657.616      1642.1671     -38211.974      24.258816      1074640.3    
    295000   299.65761     -47644.781      1568.2166     -38137.603     -4.1832751      1075323.4    
    295100   304.93584     -47663.004      1542.4142     -38041.79      -30.778717      1075206.3    
    295200   302.37488     -47528.764      1546.2356     -37971.578      43.68016       1074485.5    
    295300   301.86152     -47616.126      1594.9034     -38023.872      1.2715439      1075018.3    
    295400   297.51972     -47618.235      1544.2416     -38191.673      5.9368353      1075993.9    
    295500   298.00938     -47646.245      1539.9521     -38210.999     -1.6209823      1076635.8    
    295600   300.17239     -47593.559      1554.2897     -38086.671      4.4500146      1077147.4    
    295700   299.82561     -47488.122      1545.5595     -37999.15      -1.4834729      1077822.2    
    295800   301.64807     -47524.275      1551.9428     -37980.637     -4.8683086      1078065.2    
    295900   301.62635     -47556.568      1539.1219     -38026.327     -22.76116       1077662.3    
    296000   297.00938     -47655.022      1594.0456     -38192.177     -14.604506      1075168.1    
    296100   300.96237     -47847.261      1605.435      -38268.298      40.442418      1071149.9    
    296200   297.96972     -47808.663      1592.7671     -38321.653      48.674398      1070037.2    
    296300   298.95238     -47848.607      1568.9702     -38359.36       14.809667      1071883.8    
    296400   300.276       -47796.986      1549.338      -38292.304     -34.107107      1074513.2    
    296500   299.02413     -47594.803      1568.979      -38103.646     -6.7337844      1076315.4    
    296600   300.69905     -47637.979      1606.6737     -38064.753     -25.769867      1077240.1    
    296700   301.65895     -47659.448      1544.9405     -38122.525     -29.540572      1075559.6    
    296800   300.37425     -47735.333      1546.8645     -38230.521      32.615503      1072397.5    
    296900   299.63701     -47852.822      1570.9709     -38343.436      10.779097      1071430.8    
    297000   297.64279     -47823.478      1576.5573     -38361.34      -5.2202954      1073221      
    297100   299.72175     -47626.737      1564.9785     -38121.098      7.1517462      1074605.7    
    297200   297.8902      -47544.078      1594.1316     -38057.81      -5.7316833      1076663.5    
    297300   300.13817     -47549.707      1568.635      -38029.38      -47.302404      1078988.3    
    297400   305.7662      -47586.346      1537.1562     -37948.391     -86.261433      1079404.6    
    297500   302.10334     -47457.351      1568.9609     -37884.634      34.795679      1077143.9    
    297600   301.82354     -47555.253      1565.8777     -37993.032      6.7192334      1075822.4    
    297700   301.39964     -47706.184      1590.5661     -38130.505     -1.6191744      1075770.5    
    297800   297.26908     -47655.35       1641.7361     -38137.933      0.51737533     1075642.4    
    297900   298.66199     -47537.917      1562.1218     -38063.212      14.072026      1075502.6    
    298000   300.283       -47470.207      1546.4911     -37968.186      29.748941      1076778.8    
    298100   302.02442     -47392.828      1562.6948     -37828.468      24.434221      1078783.6    
    298200   299.45019     -47270.709      1610.4692     -37726.774      55.267512      1080961      
    298300   306.63753     -47446.68       1451.666      -37871.131     -26.588858      1082131.1    
    298400   299.98487     -47482.451      1525.3294     -38009.491     -35.332704      1080366.5    
    298500   303.12396     -47638.346      1558.2065     -38049.343      4.4640482      1075277.5    
    298600   298.19345     -47676.39       1607.6718     -38168.548      48.210131      1072665.3    
    298700   295.84822     -47648.107      1552.6752     -38257.395      3.3115029      1074798.8    
    298800   298.98357     -47661.598      1564.5572     -38175.938     -36.906425      1076897      
    298900   298.00889     -47544.853      1580.1167     -38069.456     -13.654489      1077273.4    
    299000   299.58719     -47581.559      1598.5925     -38045.871     -32.324732      1077392.1    
    299100   302.81092     -47652.345      1565.4447     -38064.397     -22.889747      1075998.2    
    299200   295.49941     -47593.787      1592.084      -38172.907      13.209699      1073966.9    
    299300   300.17586     -47755.937      1502.0025     -38301.244      9.1747624      1071842.2    
    299400   295.91744     -47732.844      1523.6048     -38369.368      36.51007       1070779.3    
    299500   293.6528      -47610.2        1546.5355     -38283.792      54.842267      1071889.1    
    299600   297.49708     -47571.614      1595.5433     -38094.349     -5.6028193      1075277.9    
    299700   296.70167     -47370.229      1559.9207     -37949.66      -13.041331      1079472.2    
    299800   303.4577      -47416.196      1542.611      -37833.947     -39.394757      1080668.4    
    299900   303.40431     -47447.87       1569.3223     -37840.324      7.6515059      1077967.5    
    300000   300.80506     -47547.921      1571.692      -38006.868      1.2665483      1075618.3    
    300100   300.60879     -47612.36       1552.8876     -38095.312      5.5831893      1074385.7    
    300200   300.61492     -47707.32       1579.9433     -38163.054     -9.0279853      1073738.6    
    300300   296.88215     -47645.071      1537.5588     -38242.083      29.993809      1072740.6    
    300400   297.68444     -47746.505      1547.5068     -38312.314     -25.696606      1073691.2    
    300500   293.97238     -47761.901      1525.0372     -38448.525     -8.5954976      1074610      
    300600   296.66778     -47831.089      1532.6126     -38438.727      4.9972201      1072992.5    
    300700   303.17719     -47875.619      1587.6571     -38255.755      11.618993      1071413.7    
    300800   298.7838      -47683.294      1539.713      -38227.77       23.39741       1073049      
    300900   299.33269     -47721.965      1583.4088     -38208.203     -49.369064      1075737.1    
    301000   298.79703     -47550.502      1532.892      -38101.449      5.6879997      1075868.1    
    301100   303.23361     -47594.126      1582.7738     -37977.651      32.289932      1075593      
    301200   302.02833     -47596.581      1589.0681     -38005.743     -8.3878728      1076331.8    
    301300   302.98997     -47635.657      1493.0343     -38115.376     -38.289491      1077572.4    
    301400   295.48931     -47651.608      1540.5587     -38282.521     -20.421187      1076761.3    
    301500   292.88033     -47718.844      1525.775      -38433.662      14.646991      1073972.5    
    301600   298.01296     -47760.561      1550.3978     -38314.774      37.250596      1071795.8    
    301700   303.83117     -47787.643      1529.8089     -38208.301     -10.662052      1072546.4    
    301800   302.03093     -47770.838      1588.3146     -38180.686     -30.340085      1074371.9    
    301900   301.41228     -47719.734      1592.5699     -38141.716     -20.331868      1074796.1    
    302000   303.87733     -47618.896      1544.2815     -38023.859      20.522078      1075028.9    
    302100   300.95187     -47514.293      1599.6213     -37941.422     -1.3668892      1076846.7    
    302200   301.53473     -47495.678      1531.4504     -37975.535     -20.179496      1078393.2    
    302300   298.30962     -47610.039      1563.889      -38142.902     -49.590382      1076829.4    
    302400   300.91161     -47777.115      1571.1504     -38233.781      13.297683      1072117.3    
    302500   299.78306     -47751.363      1524.2557     -38284.823      95.963641      1070046.7    
    302600   297.55952     -47794.411      1575.9611     -38335.075     -20.760107      1072990.4    
    302700   297.41348     -47644.549      1574.1855     -38190.858     -36.447296      1075377      
    302800   300.83593     -47596.542      1591.7971     -38034.566      4.0663067      1075635.8    
    302900   299.86126     -47583.741      1593.5489     -38045.836      16.468437      1075136.4    
    303000   297.61413     -47630.941      1581.0302     -38165.089      12.23298       1074435      
    303100   298.02395     -47707.255      1565.1516     -38246.424      4.4529918      1073661.4    
    303200   299.88215     -47749.421      1549.8402     -38254.671     -8.269688       1073297      
    303300   301.40619     -47704.02       1606.6353     -38112.098      13.665355      1073177.3    
    303400   302.64917     -47615.386      1609.4863     -37987.682      9.9213691      1074375.5    
    303500   297.45314     -47482.951      1576.7261     -38025.668     -28.820527      1076837.7    
    303600   298.05621     -47521.789      1553.4904     -38071.764     -48.008449      1076500.7    
    303700   296.64296     -47595.002      1581.2901     -38154.62       22.036255      1073795.8    
    303800   294.23027     -47603.019      1525.6811     -38282.166      44.29836       1073803.8    
    303900   295.90141     -47681.138      1580.9987     -38260.694     -14.108714      1075510.3    
    304000   303.77208     -47668.12       1529.4116     -38090.741     -52.822298      1077051.6    
    304100   301.74585     -47593.371      1548.6201     -38050.465     -7.499104       1078092.3    
    304200   301.50306     -47598.596      1555.0871     -38055.655     -43.959601      1078152.3    
    304300   297.25786     -47512.91       1513.5472     -38123.98       14.856774      1075669.3    
    304400   299.02756     -47783.313      1584.3384     -38276.706      0.49563064     1073076.6    
    304500   301.79889     -47843.621      1540.1748     -38307.755      36.335578      1072075.5    
    304600   299.36947     -47752.107      1573.8397     -38246.941      5.7101792      1073704.2    
    304700   301.49561     -47595.571      1592.5811     -38015.334     -8.1965514      1076674.6    
    304800   301.84621     -47500.399      1530.0692     -37973.385     -28.661629      1079389.6    
    304900   302.97087     -47557.159      1589.2744     -37941.144     -40.048451      1078716.3    
    305000   299.53194     -47535.009      1608.1226     -37991.255      17.490711      1076881.1    
    305100   301.66756     -47684.419      1532.5698     -38159.638     -18.416922      1075998.3    
    305200   296.59521     -47644.035      1603.5803     -38182.628      31.174217      1075365.1    
    305300   302.70606     -47657.411      1507.2056     -38130.481      11.169457      1076363.2    
    305400   298.37517     -47548.46       1584.1318     -38059.344      11.800044      1077590.7    
    305500   306.53361     -47601.496      1602.8106     -37877.556      5.6970862      1078231.4    
    305600   302.3537      -47480.059      1596.4795     -37873.19      -5.7193071      1078835.4    
    305700   300.04258     -47522.743      1573.5491     -38000.034      0.36989122     1078658.7    
    305800   302.43305     -47699.611      1620.9024     -38066.217     -28.637328      1076995.6    
    305900   297.51048     -47561.614      1574.4722     -38105.066      38.168188      1074929.5    
    306000   297.52871     -47640.091      1619.5504     -38137.981     -1.0308073      1074712.2    
    306100   298.14934     -47692.29       1613.9229     -38179.366     -23.924743      1074932.6    
    306200   299.21522     -47660.386      1570.1613     -38162.985      9.571126       1075161.9    
    306300   301.45593     -47671.742      1563.3309     -38121.806     -18.896018      1075999.7    
    306400   299.13094     -47566.111      1589.1776     -38051.926      9.3488908      1076453.7    
    306500   298.58536     -47469.358      1576.6858     -37982.119      33.259163      1076869.8    
    306600   300.83603     -47539.908      1599.6171     -37970.11       1.4558665      1077376.6    
    306700   299.74559     -47581.4        1508.7372     -38131.371     -0.47234012     1076721.1    
    306800   297.23779     -47629.992      1555.8774     -38199.263      14.962257      1074844.1    
    306900   302.01265     -47707.903      1566.445      -38140.104      10.597         1073093.9    
    307000   300.48116     -47627.634      1608.6353     -38058.219      32.92628       1073827.2    
    307100   299.9741      -47457.48       1615.4357     -37894.699     -35.537541      1077911.8    
    307200   299.84236     -47322.936      1580.0669     -37799.013     -9.3157802      1080489.8    
    307300   301.71272     -47402.458      1605.6413     -37803.409     -31.608868      1080852.1    
    307400   295.32523     -47480.287      1622.809      -38033.297     -19.137162      1078091.8    
    307500   298.35006     -47578.971      1568.9501     -38105.702      63.048995      1072898.4    
    307600   300.44459     -47738.52       1588.1592     -38190.55       48.42612       1071159.7    
    307700   296.30153     -47688.503      1548.8308     -38289.626     -0.36578994     1072526.3    
    307800   297.84044     -47759.023      1624.3162     -38243.889     -14.762934      1073541.7    
    307900   302.18678     -47659.912      1571.9966     -38081.948      28.713654      1073122.4    
    308000   302.16195     -47641.697      1567.2482     -38069.139      21.260189      1073862.1    
    308100   300.08858     -47598.969      1570.4658     -38078.125     -73.141761      1076862.4    
    308200   298.20758     -47488.252      1588.3703     -37999.337     -11.44082       1078045.9    
    308300   302.21212     -47510.882      1643.8042     -37860.439     -11.775961      1078529.7    
    308400   301.94075     -47431.607      1579.6192     -37852.538      11.156929      1078559.1    
    308500   301.13288     -47476.214      1592.344      -37905.824     -5.9989227      1078010.5    
    308600   302.11731     -47525.788      1569.757      -37951.904     -36.537578      1077205.7    
    308700   297.57372     -47523.241      1620.7925     -38018.697      7.0681371      1076445.5    
    308800   299.80394     -47584.201      1551.5465     -38089.817     -13.284481      1075910.4    
    308900   302.76988     -47650.579      1523.1387     -38106.024     -6.9469062      1075656.4    
    309000   303.87005     -47679.793      1546.8978     -38082.332     -13.612255      1076447.5    
    309100   299.29921     -47559.489      1621.859      -38008.165     -20.281712      1077427.3    
    309200   302.53639     -47481.839      1558.5229     -37908.086     -24.999805      1078313.1    
    309300   302.49012     -47466.213      1560.3656     -37891.843      31.30998       1077922.2    
    309400   299.17649     -47560.804      1569.5882     -38065.002     -50.535272      1077415.6    
    309500   299.96963     -47645.642      1553.3566     -38145.058     -18.260184      1074646.5    
    309600   302.31498     -47685.486      1536.0186     -38140.104      69.511731      1071779.9    
    309700   300.70127     -47733.346      1561.4958     -38205.239      10.83456       1073734      
    309800   294.60301     -47640.529      1543.5527     -38291.929     -54.421466      1077584.4    
    309900   299.52438     -47717.55       1569.3095     -38212.81      -38.54          1076220.1    
    310000   301.45528     -47702.023      1650.9773     -38064.458      45.548684      1071862.5    
    310100   301.13074     -47624.122      1563.1013     -38083.032      66.351569      1071957.8    
    310200   295.87701     -47556.069      1544.495      -38172.774     -14.647331      1077010.8    
    310300   294.85454     -47453.557      1520.9766     -38120.869     -20.596552      1079319.3    
    310400   303.10004     -47515.145      1558.7974     -37926.185     -2.1371414      1077686      
    310500   303.71153     -47553.084      1567.7527     -37938.968      7.8851978      1075848      
    310600   303.90845     -47675.388      1537.6481     -38086.16      -44.673594      1076569      
    310700   296.58024     -47585.703      1585.8633     -38142.409     -12.950017      1077337.4    
    310800   301.29446     -47603.024      1532.9154     -38087.782      17.779251      1076218.3    
    310900   303.63541     -47575.733      1582.2477     -37949.139      22.778256      1075132.8    
    311000   301.60821     -47521.38       1603.9091     -37926.832      37.300723      1075878.6    
    311100   296.28249     -47552.418      1548.902      -38153.974     -41.879556      1078697.5    
    311200   297.57912     -47602.34       1549.9065     -38168.539     -50.135227      1077942.6    
    311300   304.9014      -47619.583      1490.649      -38051.047      71.984104      1073344.4    
    311400   305.07385     -47712.941      1588.5255     -38041.96       39.432525      1072327.7    
    311500   298.24029     -47616.807      1540.1255     -38175.27      -15.413394      1076742.1    
    311600   292.54943     -47544.75       1603.8897     -38190.22      -78.540106      1078952.2    
    311700   299.48795     -47581.409      1545.5636     -38101.38       3.4971102      1075235.8    
    311800   304.31881     -47692.018      1558.4157     -38071.15       66.461295      1072261.9    
    311900   300.0723      -47675.985      1540.4716     -38185.566      8.9321651      1074506      
    312000   294.17964     -47633.828      1628.2283     -38211.77      -46.894785      1076807      
    312100   298.27072     -47563.727      1587.8145     -38073.695     -4.7230696      1075425.8    
    312200   301.63098     -47619.155      1582.3751     -38045.538      7.6803144      1074103.2    
    312300   301.90737     -47713.641      1601.6929     -38113.383     -12.398825      1073996      
    312400   299.52145     -47671.679      1547.7011     -38188.625     -1.8872375      1074575.2    
    312500   300.35354     -47689.001      1546.8002     -38184.802      20.270788      1074356.1    
    312600   299.59823     -47565.911      1610.0893     -38018.434      11.600644      1075288.5    
    312700   300.91247     -47483.352      1584.8894     -37926.256     -15.158263      1077259      
    312800   299.03575     -47435.505      1565.9836     -37947.036     -27.625145      1078476.5    
    312900   299.1875      -47449.274      1557.9901     -37964.778      11.107233      1077607.4    
    313000   300.47839     -47519.209      1604.8975     -37953.606      38.701437      1075250.8    
    313100   300.83741     -47530.471      1584.8587     -37975.395      28.54117       1075311.4    
    313200   300.06307     -47588.234      1567.9107     -38070.62      -55.014318      1077479.7    
    313300   298.13185     -47533.293      1560.8891     -38073.866     -35.934188      1077853.9    
    313400   307.70306     -47602.079      1527.7214     -37922.245     -2.1704296      1076266.4    
    313500   302.83719     -47467.132      1540.9203     -37903.012      53.685898      1075771.9    
    313600   300.04313     -47503.416      1561.9443     -37992.297     -17.340208      1077235.4    
    313700   297.32713     -47462.278      1566.909      -38018.151     -15.880993      1077878.6    
    313800   295.0701      -47436.651      1590.9235     -38028.305      45.579288      1076901.5    
    313900   301.4458      -47569.35       1560.8463     -38022.167     -29.078283      1076343.3    
    314000   300.99651     -47623.096      1567.2619     -38081.401      7.1381638      1075243.3    
    314100   297.07725     -47603.309      1527.4887     -38205.222      18.991505      1075019.5    
    314200   300.8401      -47782.377      1553.3091     -38258.779     -35.918017      1074675.8    
    314300   299.92085     -47731.042      1558.2198     -38226.887      28.259333      1072990.1    
    314400   299.67994     -47571.827      1583.1766     -38049.098      47.03174       1073992.8    
    314500   300.49597     -47543.694      1586.9521     -37995.57      -42.09968       1077590.8    
    314600   298.14437     -47452.382      1560.5044     -37993.007     -19.237154      1079065.2    
    314700   299.85729     -47506.493      1619.8155     -37942.426     -13.158942      1078123.2    
    314800   303.83293     -47492.836      1599.7676     -37843.489      36.06285       1077105.8    
    314900   301.73223     -47487.27       1606.3101     -37887.035     -8.7875868      1079613.4    
    315000   295.82868     -47405.663      1547.1885     -38020.955     -42.698756      1081655.8    
    315100   298.29825     -47469.206      1551.9705     -38014.289     -1.5061268      1078997.2    
    315200   304.2232      -47554.289      1537.991      -37956.379      43.514164      1075911.6    
    315300   299.77084     -47512.418      1590.0111     -37980.447      30.512226      1076365.8    
    315400   301.41633     -47671.548      1573.5941     -38112.399     -51.25565       1077949.4    
    315500   297.55901     -47563.882      1546.4203     -38134.1       -26.004168      1077698.5    
    315600   298.92779     -47561.308      1588.1803     -38053.502      18.87526       1076098.7    
    315700   300.72525     -47549.973      1615.3835     -37967.343      2.3437836      1075392.7    
    315800   303.74495     -47569.201      1530.3145     -37991.638      11.561523      1076578.8    
    315900   299.53347     -47662.203      1552.9788     -38173.553     -75.521972      1078805      
    316000   299.48496     -47673.841      1566.4085     -38173.046     -34.581779      1076961.7    
    316100   301.82515     -47585.47       1508.3286     -38080.755      82.963666      1072822.4    
    316200   305.37237     -47783.152      1568.6798     -38124.107      20.490223      1072910.5    
    316300   295.34805     -47752.025      1606.5203     -38320.719     -59.277002      1075648.8    
    316400   294.77471     -47662.327      1555.6762     -38297.055     -25.560222      1075113.5    
    316500   301.83123     -47741.957      1562.4465     -38182.963      9.8588194      1072789.3    
    316600   301.59941     -47652.517      1539.0477     -38123.064      40.343477      1073173.8    
    316700   299.33442     -47620.938      1593.6367     -38096.902     -37.915639      1076350      
    316800   301.87978     -47476.614      1551.0815     -37927.699     -18.751924      1077783.5    
    316900   302.57168     -47441.666      1592.8002     -37832.701     -27.940135      1077836.3    
    317000   302.52981     -47511.958      1607.5324     -37889.371      4.0049842      1076995.3    
    317100   301.57691     -47586.806      1584.3445     -38012.652     -10.06494       1076740.6    
    317200   299.61251     -47530.28       1534.0694     -38058.444      9.6797025      1076885.2    
    317300   299.34973     -47586.008      1583.5554     -38071.648     -6.2381519      1076302.2    
    317400   303.61801     -47675.685      1542.6732     -38089.127     -16.726979      1076408.6    
    317500   299.9716      -47670.617      1528.2978     -38195.04      -22.953117      1076412.2    
    317600   299.12287     -47757.592      1492.4199     -38340.378      4.4310277      1073117.5    
    317700   303.33547     -47921.714      1528.2209     -38357.093      38.100827      1069403.8    
    317800   301.02602     -47884.053      1542.1643     -38366.674      47.403505      1070509.9    
    317900   296.47244     -47800.761      1623.158      -38323.028     -52.523261      1075308.5    
    318000   298.13912     -47623.358      1590.0004     -38134.626      5.7523105      1077503.1    
    318100   301.32315     -47562.602      1557.6169     -38021.898      13.261128      1077627.9    
    318200   303.52095     -47587.215      1564.1979     -37981.703     -0.10812282     1076606.9    
    318300   299.12476     -47578.918      1607.5074     -38046.567     -19.391433      1076712      
    318400   300.33207     -47636.72       1488.5629     -38191.327     -25.102141      1076822.4    
    318500   294.33661     -47546.819      1536.2016     -38212.628      57.150308      1076601.3    
    318600   298.35066     -47621.222      1598.3569     -38118.53      -28.086665      1076905.1    
    318700   301.69196     -47637.744      1592.4198     -38052.467      6.0067501      1076599.3    
    318800   299.22909     -47643.545      1629.5052     -38086.432     -9.7542224      1076246      
    318900   295.88492     -47612.615      1615.1391     -38158.467      4.4465398      1075910      
    319000   298.50301     -47711.446      1606.8772     -38196.197      28.480849      1074428.8    
    319100   299.37968     -47694.595      1591.8755     -38171.122      44.287993      1073897      
    319200   301.44746     -47580.892      1549.4431     -38045.069      25.03313       1076057.8    
    319300   301.00011     -47501.382      1558.5903     -37968.264     -32.42815       1079610.2    
    319400   301.33708     -47438.101      1525.3457     -37929.3       -11.067597      1080477.1    
    319500   305.79683     -47551.299      1593.5953     -37856.093     -17.828973      1078229.1    
    319600   303.79218     -47558.205      1584.1382     -37925.567      39.340976      1076204.6    
    319700   301.3125      -47568.809      1484.1915     -38101.813      31.229977      1076110.1    
    319800   295.23047     -47528.49       1563.1391     -38143.68       17.290967      1076580      
    319900   300.88207     -47586.643      1541.4389     -38073.803      10.046185      1077067.2    
    320000   300.50738     -47507.043      1595.6241     -37949.945     -18.656058      1077615.6    
    320100   305.92759     -47578.752      1575.8985     -37897.779     -9.9701706      1077880.8    
    320200   299.54543     -47450.532      1559.3247     -37955.218     -18.492979      1079188.4    
    320300   296.51178     -47375.967      1543.0854     -37977.264      27.478542      1079385.2    
    320400   300.57265     -47499.536      1571.4169     -37964.916      4.5927662      1079265      
    320500   301.58212     -47484.431      1538.2783     -37956.205      29.36993       1079382.4    
    320600   296.70679     -47395.504      1537.3383     -37997.383     -8.3505285      1080363.3    
    320700   300.53593     -47594.292      1545.9701     -38086.091     -41.774216      1079725.5    
    320800   299.12136     -47586.334      1568.0403     -38093.54       20.041326      1076972.7    
    320900   302.35336     -47660.981      1581.7928     -38068.808      55.843034      1074365.1    
    321000   299.3822      -47636.925      1575.9427     -38129.318      10.44995       1075716.8    
    321100   293.98495     -47546.891      1506.9574     -38251.261     -22.328031      1077172.7    
    321200   300.56957     -47724.02       1559.805      -38201.094     -17.622744      1075264.8    
    321300   302.57901     -47678.758      1595.4304     -38066.969      43.338968      1073363.9    
    321400   301.10462     -47633.366      1618.2923     -38037.776     -19.759185      1075164.5    
    321500   297.64134     -47571.604      1537.5379     -38148.524     -4.7248416      1076880.5    
    321600   293.08429     -47691.011      1575.7579     -38350.442     -22.654685      1076713      
    321700   299.32291     -47715.399      1535.1902     -38250.115      2.0958587      1074225.6    
    321800   300.07079     -47676.491      1566.3708     -38160.213      45.917688      1072727.9    
    321900   303.96275     -47753.546      1564.8693     -38135.658     -29.920565      1075625.5    
    322000   297.05057     -47531.405      1525.9655     -38135.548     -50.320292      1079179.1    
    322100   299.67147     -47462.408      1525.936      -37997.144     -5.6600175      1078994      
    322200   302.20637     -47516.24       1616.7319     -37893.021     -7.2803526      1077811      
    322300   305.02607     -47663.118      1618.7383     -37963.19      -39.40448       1076891.4    
    322400   299.78169     -47603.15       1562.4641     -38098.437     -5.3716146      1075812.9    
    322500   298.44614     -47639.16       1626.0266     -38106.269      16.708378      1075301.7    
    322600   298.59417     -47581.124      1585.1819     -38085.155      21.884225      1076449.5    
    322700   302.11548     -47609.85       1548.3601     -38057.412     -41.863209      1078349.4    
    322800   303.53238     -47571.321      1564.1945     -37965.51      -22.236202      1078034.8    
    322900   305.25653     -47569.241      1562.9022     -37919.044      16.151702      1075634.7    
    323000   301.9357      -47644.515      1583.6602     -38061.54       17.56595       1074465.5    
    323100   298.88926     -47661.022      1567.0186     -38175.398     -24.042432      1074140.2    
    323200   300.7132      -47754.292      1562.8372     -38224.528      41.407783      1072152.7    
    323300   297.66262     -47723.906      1550.0716     -38287.728      34.054609      1072907.2    
    323400   295.05785     -47740.782      1557.8541     -38365.831     -47.506008      1075586.8    
    323500   295.35199     -47636.149      1543.5552     -38267.704     -15.272318      1075704      
    323600   301.38555     -47646.425      1552.1234     -38109.562      42.104729      1074017.7    
    323700   298.37439     -47563.819      1568.3329     -38090.522     -6.9337605      1074718.3    
    323800   299.2106      -47581.649      1574.23       -38080.301      10.453277      1076242.9    
    323900   302.73798     -47586.836      1536.8369     -38029.429     -43.884759      1077360.7    
    324000   300.51549     -47437.628      1581.2275     -37894.711      0.87708819     1077652.4    
    324100   301.68614     -47355.834      1551.5584     -37811.572     -7.2047041      1078939.6    
    324200   299.41635     -47284.84       1555.1381     -37797.133     -15.221041      1080732.8    
    324300   301.3694      -47302.676      1613.9515     -37704.412     -23.592193      1080649.1    
    324400   305.15786     -47308.865      1591.0321     -37633.152      32.556742      1078985.3    
    324500   302.0933      -47380.723      1566.1272     -37811.105      3.1753396      1078834.9    
    324600   299.9252      -47421.376      1568.1904     -37907.136     -22.99856       1078998      
    324700   297.8543      -47424.045      1571.8503     -37961.01      -10.301418      1076944.5    
    324800   299.73016     -47533.103      1528.8885     -38063.332      80.92929       1074345.2    
    324900   297.28173     -47603.051      1521.7612     -38205.274      51.208161      1074727.5    
    325000   295.40769     -47547.098      1536.3693     -38184.363      3.5370745      1075793.7    
    325100   300.09295     -47611.144      1584.545      -38076.104      0.74358594     1075405.7    
    325200   299.53092     -47559.121      1592.4511     -38031.066     -7.867054       1075248      
    325300   299.43287     -47572.96       1588.0424     -38051.911      10.76984       1075751.7    
    325400   299.88536     -47572.829      1518.4161     -38109.418     -25.0457        1076567.4    
    325500   299.03616     -47713.265      1545.189      -38245.58      -56.039543      1075341.2    
    325600   297.0968      -47776.204      1563.4073     -38341.68       19.187331      1071193.9    
    325700   302.05843     -47859.648      1575.9059     -38281.176      36.291744      1068324.7    
    325800   300.57212     -47712.991      1541.0544     -38208.748      52.592907      1071396.5    
    325900   296.29034     -47520.186      1558.3892     -38112.046     -41.688944      1077914.4    
    326000   299.20391     -47425.406      1570.8846     -37927.58      -51.430346      1080559.1    
    326100   300.57103     -47459.873      1597.9786     -37898.734     -44.207045      1079206.4    
    326200   300.15699     -47541.238      1605.3424     -37983.705      29.00933       1075462.7    
    326300   303.14498     -47740.422      1570.4289     -38138.64      -32.250503      1074230.3    
    326400   297.57322     -47569.721      1520.2106     -38165.772      45.875899      1074459.7    
    326500   299.80416     -47603.362      1531.044      -38129.475     -0.22700521     1076196.9    
    326600   300.20977     -47570.994      1562.3998     -38055.005      0.7464149      1075999.4    
    326700   304.47874     -47592.578      1593.3355     -37932.553      3.4587072      1075516.7    
    326800   300.4167      -47495.912      1615.6837     -37921.156      10.544235      1076931.4    
    326900   298.11235     -47533.019      1549.9534     -38085.044     -28.806471      1078853.4    
    327000   293.75832     -47464.777      1562.7729     -38119.336     -13.053683      1077646.4    
    327100   303.29019     -47581.932      1524.3475     -38022.384      52.689912      1073710.4    
    327200   302.63754     -47597.339      1535.7187     -38043.711      36.874545      1074401.4    
    327300   297.87112     -47562.043      1546.9044     -38123.508     -38.653205      1077072.9    
    327400   296.15215     -47540.345      1607.0891     -38087.167     -14.472167      1077728.2    
    327500   304.51611     -47657.524      1563.6824     -38026.162     -9.7996835      1076032.5    
    327600   301.72436     -47644.66       1613.4748     -38037.469      19.880671      1074971.2    
    327700   298.78045     -47669.196      1556.1295     -38197.345     -24.823324      1075180      
    327800   298.33492     -47773.642      1637.1012     -38232.623     -35.106824      1074344.8    
    327900   297.67127     -47641.721      1573.1007     -38182.285      58.467558      1072040      
    328000   303.83116     -47779.953      1567.1354     -38163.285      16.313167      1072357.3    
    328100   297.2991      -47698.287      1536.1534     -38285.658      0.84774144     1074296.4    
    328200   297.0752      -47805.643      1520.9331     -38414.166     -47.873047      1075077.8    
    328300   295.37979     -47668.934      1559.2055     -38284.102      32.226028      1073917.4    
    328400   300.74802     -47709.372      1542.9741     -38198.548      23.300436      1073456.2    
    328500   302.10271     -47688.304      1526.8161     -38157.748     -8.7109612      1074829.9    
    328600   302.07435     -47729.788      1583.7287     -38143.07      -37.156438      1075534.8    
    328700   298.42897     -47609.484      1622.8514     -38080.222      2.8233677      1074955.5    
    328800   303.19448     -47563.059      1556.5482     -37973.847      31.565743      1075258.7    
    328900   303.36197     -47569.57       1535.168      -37997.3       -41.893827      1077230.3    
    329000   300.19964     -47673.86       1567.6917     -38152.848     -61.994176      1078289.3    
    329100   293.81226     -47518.232      1553.7303     -38180.405      17.920368      1076128.3    
    329200   302.01783     -47735.843      1590.7643     -38143.588      25.229825      1072356      
    329300   300.54151     -47766.01       1646.2751     -38157.357      26.611954      1071530.5    
    329400   295.77979     -47606.991      1567.4574     -38203.31       18.507013      1074930.4    
    329500   290.88124     -47596.419      1561.7642     -38328.21      -32.559949      1078017.3    
    329600   299.94387     -47639.122      1510.6464     -38181.93       1.8860478      1076700.3    
    329700   303.39978     -47674.171      1567.8442     -38068.223      36.452244      1073953.8    
    329800   304.68264     -47719.922      1530.0837     -38117.747      12.147963      1073800.7    
    329900   298.49445     -47726.153      1588.4929     -38229.515     -45.445332      1075705.1    
    330000   296.74083     -47618.247      1564.8024     -38191.759      22.007748      1075813.4    
    330100   303.12058     -47636.988      1557.4356     -38048.846      5.5161404      1075030.1    
    330200   306.26028     -47607.043      1516.1239     -37977.031      14.282131      1075398.2    
    330300   301.32874     -47516.431      1516.5267     -38016.669      7.4663582      1077856.4    
    330400   296.16458     -47377.206      1541.1871     -37989.6       -8.4114621      1079324.3    
    330500   305.26235     -47575.462      1562.1023     -37925.909      9.9828449      1077551.6    
    330600   305.48357     -47557.533      1512.0721     -37952.15      -6.3419546      1076460      
    330700   300.78872     -47688.26       1572.9499     -38146.382     -18.443975      1075634.1    
    330800   300.09084     -47759.253      1593.8827     -38214.931     -44.41935       1074716.1    
    330900   298.9422      -47735.163      1588.6863     -38226.47       10.589029      1072894      
    331000   301.80646     -47708.045      1579.3015     -38132.853      7.6835823      1072675.5    
    331100   301.05738     -47578.078      1587.4359     -38014.597      15.17494       1074874.4    
    331200   302.46626     -47575.704      1550.9945     -38011.338     -39.805914      1077144.1    
    331300   299.1614      -47677.805      1555.0314     -38196.959     -87.227974      1076510.3    
    331400   297.80775     -47752.812      1585.8254     -38277.035      12.980556      1071993.7    
    331500   301.51161     -47814.816      1579.6311     -38247.105      50.306757      1069119.5    
    331600   300.69414     -47763.888      1533.1179     -38264.348      18.320978      1071450      
    331700   296.20052     -47661.803      1500.9086     -38313.524     -57.471964      1074535.6    
    331800   296.43454     -47601.255      1516.3536     -38231.331      26.415542      1073237.1    
    331900   300.53459     -47646.868      1579.0422     -38105.631      68.210284      1070662.6    
    332000   301.18011     -47670.504      1559.7412     -38131.466      58.584559      1071503.1    
    332100   294.81164     -47628.093      1590.0056     -38227.513     -43.51819       1074395.8    
    332200   300.23312     -47735.475      1486.4179     -38294.849      8.1508638      1073488.4    
    332300   298.99395     -47725.541      1620.5477     -38183.615      16.650891      1071608.5    
    332400   302.46005     -47621.724      1548.817      -38059.7        42.793957      1071555.7    
    332500   301.20579     -47530.705      1492.0918     -38058.636      2.321461       1074718.9    
    332600   296.54697     -47408.458      1547.1079     -38004.801     -23.40892       1078060.7    
    332700   303.34684     -47482.35       1617.0149     -37828.634     -18.876325      1077818.2    
    332800   300.63966     -47447.469      1618.8437     -37863.647      63.15254       1076022.7    
    332900   303.19228     -47532.612      1505.1522     -37994.854     -6.466633       1076081.4    
    333000   299.91533     -47550.81       1530.8764     -38074.145     -1.1805568      1075295.4    
    333100   298.79276     -47587.428      1572.5441     -38098.836      9.1199191      1073419.9    
    333200   300.63714     -47716.342      1645.844      -38105.586      36.337792      1072391.9    
    333300   296.51174     -47656.075      1667.384      -38133.075      34.915956      1072865.5    
    333400   298.42063     -47689.22       1596.5536     -38186.478     -34.7567        1073903.8    
    333500   297.49073     -47697.506      1594.8731     -38221.08       10.683671      1072622.7    
    333600   298.40591     -47681.205      1563.447      -38211.959      13.961405      1071366.8    
    333700   301.60019     -47746.042      1547.4573     -38208.158      29.492145      1070941      
    333800   297.71728     -47702.157      1579.2486     -38235.354      27.615167      1072711      
    333900   301.13774     -47743.292      1526.7757     -38238.342     -43.57826       1075039.1    
    334000   299.59429     -47694.293      1596.0016     -38161.008     -22.477646      1075138.8    
    334100   304.21367     -47675.912      1568.9952     -38047.251      24.354334      1074159.1    
    334200   297.28358     -47561.166      1579.1334     -38105.968      20.746672      1074742      
    334300   300.51752     -47761.105      1544.655      -38254.707      2.8950491      1074644.8    
    334400   303.21537     -47902.99       1591.2109     -38278.561     -20.401629      1073224.5    
    334500   298.83031     -47782.487      1560.5064     -38304.937      37.394151      1072554.5    
    334600   298.71494     -47753.802      1543.7571     -38296.059      5.5830495      1073515.6    
    334700   299.57664     -47637.358      1532.4069     -38168.136     -12.989379      1075602      
    334800   303.19149     -47618.15       1559.3654     -38026.2       -0.27138228     1077469.7    
    334900   299.53113     -47550.783      1588.8856     -38026.287     -42.59674       1079386.1    
    335000   299.64832     -47574.572      1555.9119     -38079.946     -23.084639      1078516.1    
    335100   300.66345     -47760.161      1570.5114     -38224.041     -40.910456      1075420.5    
    335200   296.19149     -47798.303      1596.0018     -38355.17       51.45341       1071405.3    
    335300   299.42973     -47877.869      1571.286      -38373.659      49.595784      1069769.2    
    335400   298.75877     -47822.17       1513.9517     -38393.07       4.5300311      1072118.2    
    335500   297.85771     -47806.078      1574.3506     -38340.452     -22.554415      1075040.2    
    335600   303.00444     -47769.74       1601.1314     -38140.979     -32.363655      1075893.4    
    335700   299.12799     -47553.069      1556.995      -38071.144      21.225871      1076225.4    
    335800   303.60366     -47623.32       1539.7305     -38040.084     -20.643886      1078100      
    335900   299.23539     -47495.614      1591.7813     -37976.058     -54.675785      1080774.7    
    336000   302.12961     -47350.876      1525.2229     -37821.2       -13.116658      1080515.2    
    336100   305.28213     -47476.788      1571.528      -37817.286     -3.5473993      1078351.5    
    336200   299.069       -47439.585      1584.6742     -37931.544      19.812009      1077167.3    
    336300   303.8458      -47570.179      1518.6557     -38001.603     -31.950545      1078007.9    
    336400   300.27277     -47577.041      1556.4857     -38065.297     -25.601019      1077225.6    
    336500   302.29578     -47650.565      1541.7388     -38099.971      1.3196431      1075348.5    
    336600   300.5531      -47732.64       1605.3007     -38164.654     -36.215524      1075071      
    336700   295.40579     -47581.973      1516.0134     -38239.644     -4.6382923      1075364.6    
    336800   297.45221     -47605.423      1580.7739     -38144.117     -15.701895      1075085      
    336900   302.02992     -47606.61       1578.7803     -38026.018      23.591625      1073922.6    
    337000   302.37835     -47597.153      1546.7316     -38039.379      11.730607      1075021      
    337100   299.98902     -47621.53       1575.0137     -38098.776     -51.169085      1078284.8    
    337200   294.25059     -47531.156      1505.1199     -38230.326     -8.0076147      1078572      
    337300   296.08559     -47661.234      1522.6263     -38294.282      2.4588814      1074559.2    
    337400   298.90661     -47661.267      1590.9232     -38151.279      117.70884      1070237.3    
    337500   300.07321     -47630.226      1603.5156     -38076.739      54.41785       1073310.6    
    337600   299.92555     -47526.837      1528.7369     -38052.04      -60.278025      1080275.6    
    337700   298.75877     -47380.609      1535.41       -37930.051     -55.208958      1081906.2    
    337800   303.32804     -47475.453      1582.7389     -37856.511     -3.0410105      1078375.4    
    337900   303.63527     -47517.758      1549.1303     -37924.285      31.819479      1075992.8    
    338000   295.32986     -47514.006      1634.087      -38055.615      10.279907      1076804.7    
    338100   299.89576     -47630.171      1582.5676     -38102.333     -62.147225      1077153.1    
    338200   300.69013     -47629.981      1580.7966     -38082.869      9.881768       1074788.3    
    338300   303.01856     -47613.806      1548.6597     -38037.143      31.015163      1073262.4    
    338400   301.66556     -47678.054      1579.707      -38106.189     -0.32137079     1075290.1    
    338500   296.50935     -47630.717      1580.4021     -38194.762     -51.267233      1077480.1    
    338600   297.39168     -47606.6        1601.7484     -38125.923     -34.598681      1075808.8    
    338700   303.43887     -47625.876      1592.3207     -37994.416      25.73932       1073741.9    
    338800   298.06511     -47552.775      1613.3666     -38042.638      26.805053      1075271.8    
    338900   299.32039     -47590.011      1528.7753     -38131.209     -17.413586      1077174.5    
    339000   299.54773     -47643.266      1573.6652     -38133.551      30.516429      1076935.4    
    339100   300.46373     -47610.958      1563.7351     -38086.905      3.667849       1076899.7    
    339200   296.15126     -47490.841      1586.7897     -38057.986      17.008259      1077140.3    
    339300   301.0159      -47575.757      1560.8523     -38039.958     -0.50415181     1077738.9    
    339400   299.25257     -47459.682      1556.7962     -37974.656     -10.145659      1077912.1    
    339500   298.51076     -47344.507      1555.7524     -37880.178      14.194332      1078352.1    
    339600   300.41831     -47445.85       1620.4245     -37866.311     -13.224921      1078791.3    
    339700   299.52065     -47448.953      1554.2692     -37959.352     -7.0662331      1079090.1    
    339800   298.32034     -47578.979      1559.93       -38115.517     -9.1593589      1076748.2    
    339900   299.29889     -47630.374      1536.0151     -38164.902      60.566538      1073368.5    
    340000   295.74056     -47612.949      1606.518      -38171.247      41.2231        1074041      
    340100   301.67281     -47615.461      1555.3512     -38067.759     -14.467275      1077020.1    
    340200   298.61708     -47378.659      1534.5657     -37932.7       -3.7809791      1079374.1    
    340300   299.14397     -47368.054      1554.0753     -37888.626      22.200496      1079863.7    
    340400   297.01738     -47315.213      1543.1252     -37903.076      43.076996      1080546.6    
    340500   298.47985     -47393.757      1537.8015     -37948.198     -46.081304      1081988.2    
    340600   299.70615     -47482.076      1513.4989     -38028.33      -31.548586      1080915.6    
    340700   300.98961     -47552.638      1525.5518     -38052.836      9.1278787      1077261.1    
    340800   302.24592     -47692.384      1582.9976     -38101.852      13.297972      1075415.4    
    340900   298.33285     -47562.702      1490.0584     -38168.78      -10.814203      1077154.9    
    341000   296.67237     -47605.35       1599.0377     -38146.441     -47.54679       1078450.9    
    341100   297.49791     -47423.593      1578.5123     -37963.338      30.658584      1077720      
    341200   303.12501     -47510.49       1565.5984     -37914.068      12.166204      1077588.3    
    341300   301.4249      -47516.547      1548.2452     -37982.519     -5.2627988      1077589.4    
    341400   296.70358     -47483.354      1547.6723     -38074.983      32.371271      1077622.1    
    341500   296.13107     -47542.394      1509.9286     -38186.935      19.334222      1076872      
    341600   298.85269     -47762.581      1491.8006     -38353.145      6.2141712      1074566.7    
    341700   298.19335     -47824.773      1547.8475     -38376.757      1.7903275      1072814.2    
    341800   301.26928     -47731.025      1557.493      -38191.872      46.165136      1072354      
    341900   298.56962     -47625.659      1573.9694     -38141.553     -3.7007503      1074734.2    
    342000   297.75029     -47576.612      1560.1885     -38127.994     -24.107546      1076255      
    342100   302.09982     -47578.425      1526.9335     -38047.828      16.331124      1076109.7    
    342200   302.66177     -47538.719      1587.2538     -37932.914      5.2283562      1077366.8    
    342300   301.0302      -47402.58       1543.8699     -37883.385      17.318873      1078932.3    
    342400   295.83202     -47307.365      1580.0294     -37889.728      3.5883073      1080015.1    
    342500   302.26732     -47533.319      1548.2963     -37976.921     -33.184363      1078567.6    
    342600   301.18202     -47652.778      1594.7419     -38078.689     -18.402607      1075480.3    
    342700   300.1698      -47610.875      1532.7933     -38125.551      29.042633      1074006.5    
    342800   296.29361     -47541.03       1532.0193     -38159.174      27.730015      1075022      
    342900   296.63915     -47463.028      1524.7584     -38079.279      2.8524244      1076209.9    
    343000   303.28402     -47482.613      1524.2051     -37923.371      20.761794      1076199.8    
    343100   301.57525     -47468.467      1532.7692     -37945.932     -16.676933      1077300.9    
    343200   302.00696     -47600.712      1556.9718     -38042.537     -15.56276       1077246.6    
    343300   301.17646     -47663.143      1538.6411     -38145.301     -7.1548157      1075765.4    
    343400   297.09681     -47663.704      1514.0257     -38278.562      0.96903969     1074040.6    
    343500   290.93195     -47730.057      1580.0406     -38442.229      17.24274       1072205.3    
    343600   298.88932     -47886.93       1575.5209     -38392.803      53.045196      1069756.8    
    343700   303.70351     -47827.144      1574.6472     -38206.346      18.197968      1071370.2    
    343800   298.81886     -47604.762      1506.1925     -38181.83      -19.119016      1076156.1    
    343900   300.23382     -47544.438      1519.3208     -38070.89      -43.047274      1079088.5    
    344000   299.15551     -47451.497      1579.3633     -37946.476      21.935868      1077715      
    344100   302.51922     -47541.087      1591.1136     -37935.199      5.3483777      1076356.3    
    344200   299.35696     -47500.395      1560.3164     -38009.083     -5.4630572      1076475.4    
    344300   300.62094     -47565.108      1515.6112     -38085.014     -0.12090957     1076062      
    344400   300.30381     -47612.906      1555.0501     -38101.775      14.873104      1075499.1    
    344500   299.94005     -47621.692      1593.7201     -38081.529      19.287347      1075530.4    
    344600   295.92074     -47503.197      1624.1739     -38039.064      45.80698       1075853.9    
    344700   300.84227     -47465.462      1563.4432     -37931.672      27.663273      1077528.6    
    344800   304.56769     -47363.837      1550.3506     -37744.44      -3.3086453      1079642      
    344900   302.25292     -47352.124      1586.202      -37758.203     -37.775284      1081091      
    345000   301.90266     -47387.984      1574.6482     -37814.896     -9.0692797      1080883.1    
    345100   298.28666     -47354.877      1565.5673     -37886.67      -9.4516372      1080258      
    345200   297.98522     -47507.407      1596.8435     -38015.91      -35.106326      1078836      
    345300   295.99198     -47542.116      1601.7064     -38098.564      30.626552      1074844.3    
    345400   300.06931     -47598.848      1555.4155     -38093.564      43.491709      1072788.5    
    345500   296.73962     -47611.201      1602.6245     -38146.923     -9.7277902      1074324.3    
    345600   297.68023     -47604.076      1547.2329     -38170.27      -40.857675      1076373.3    
    345700   301.47332     -47564.637      1541.6558     -38035.916     -7.874396       1076239.4    
    345800   301.90335     -47536.613      1570.2024     -37967.952      29.500145      1074842.7    
    345900   300.60484     -47623.024      1610.7919     -38048.176      24.412823      1074890.9    
    346000   297.06699     -47600.528      1574.673      -38155.529     -33.989148      1076720.5    
    346100   296.37987     -47583.06       1587.1334     -38143.804     -12.161665      1076027.2    
    346200   298.84        -47545.079      1577.9541     -38049.825      24.263053      1074585.5    
    346300   302.67261     -47465.421      1605.6853     -37840.897      42.215334      1074968.9    
    346400   301.83315     -47391.291      1585.401      -37809.291      7.162914       1078151.2    
    346500   300.67484     -47346.933      1510.4732     -37870.549     -31.608706      1080848.5    
    346600   299.99519     -47370.067      1520.0533     -37902.11      -4.1697585      1081258.2    
    346700   301.9114      -47464.918      1584.8569     -37881.389     -29.873499      1080034.8    
    346800   302.44279     -47383.44       1585.7244     -37784.966      31.202501      1077957.1    
    346900   304.35822     -47454.046      1597.7089     -37792.841      7.2459489      1077351.3    
    347000   296.62665     -47438.469      1587.4132     -37992.395     -8.124109       1077375.1    
    347100   300.17265     -47622.821      1639.4826     -38030.732     -33.515728      1076666      
    347200   296.88299     -47472.415      1545.5902     -38061.373      53.582678      1075333.3    
    347300   299.62578     -47579.188      1538.2158     -38102.855      34.192173      1074973.4    
    347400   294.71297     -47589.733      1582.1443     -38199.629      22.058999      1075019      
    347500   299.05346     -47718.013      1566.3716     -38228.687     -4.2766574      1074169.2    
    347600   301.40976     -47711.665      1607.5641     -38118.72       43.990156      1073106.1    
    347700   299.33902     -47563.962      1608.2878     -38025.154      34.794597      1074927.5    
    347800   300.41354     -47546.287      1537.7086     -38049.59      -22.178413      1078435.9    
    347900   298.69132     -47626.912      1556.2829     -38157.269     -91.925876      1079623.7    
    348000   293.9012      -47572.645      1559.264      -38226.927      29.36251       1075228.7    
    348100   303.06667     -47730.727      1520.7471     -38180.701      64.385614      1071448.2    
    348200   302.67032     -47675.219      1533.991      -38122.45       28.116857      1072401.2    
    348300   300.38786     -47607.108      1572.4783     -38076.322     -49.79594       1075664.1    
    348400   297.96333     -47447.706      1586.0112     -37967.622     -13.055297      1076882.7    
    348500   302.45376     -47442.48       1557.038      -37872.402     -12.191754      1076457.6    
    348600   303.4565      -47535.537      1548.9451     -37946.986     -15.656932      1076386.7    
    348700   299.66548     -47611.367      1547.494      -38124.704     -28.244684      1075560.6    
    348800   297.30525     -47559.53       1558.3357     -38124.556      53.258098      1073062.6    
    348900   299.22099     -47625.772      1597.4415     -38100.938      46.499208      1073343.2    
    349000   298.62931     -47622.386      1603.8237     -38106.845     -39.247033      1075931.7    
    349100   300.9491      -47584.696      1582.181      -38029.338     -20.962765      1076504.3    
    349200   301.98304     -47566.829      1592.3049     -37973.955     -13.5337        1076342.9    
    349300   304.3933      -47691.547      1538.4195     -38088.702     -8.7560577      1076374.1    
    349400   299.7645      -47694.005      1540.7685     -38211.444     -34.749193      1076239.5    
    349500   299.31111     -47706.853      1582.1247     -38194.948     -16.358743      1074915.4    
    349600   300.73893     -47654.737      1558.1884     -38128.94       35.20773       1074052.9    
    349700   303.80577     -47563.041      1528.0702     -37986.111      4.93686        1076087.9    
    349800   302.61459     -47496.086      1601.3086     -37877.476     -35.508665      1079174.7    
    349900   300.7172      -47497.918      1599.6061     -37931.279     -45.018638      1080667      
    350000   298.07853     -47412.238      1516.7547     -37998.358     -3.928436       1079211.2    
    350100   303.34114     -47581.845      1530.2391     -38015.056      29.856383      1076192.8    
    350200   301.88258     -47618.868      1546.2635     -38074.696      6.3089962      1075546.3    
    350300   301.28182     -47723.758      1584.8685     -38156.898     -35.938957      1075394.1    
    350400   296.79489     -47705.923      1623.4616     -38219.344     -16.621503      1074433.8    
    350500   299.87772     -47698.979      1631.8258     -38122.361      17.715402      1073710      
    350600   301.05939     -47544.503      1594.9133     -37973.491      33.496681      1075500.4    
    350700   299.62964     -47469.106      1547.4786     -37983.408     -50.17326       1078748.1    
    350800   299.16233     -47494.081      1624.8067     -37943.436     -20.580321      1078739.7    
    350900   301.17498     -47352.066      1563.6646     -37809.24       40.398212      1076735.6    
    351000   304.06433     -47348.177      1595.0338     -37697.434      48.895105      1076979.1    
    351100   303.75624     -47389.137      1498.7418     -37842.848     -51.649526      1079525.8    
    351200   298.85355     -47374.726      1554.7703     -37902.297     -18.214497      1078980.1    
    351300   305.78222     -47511.349      1496.4033     -37913.723      30.103864      1075820.9    
    351400   299.80781     -47558.672      1567.9945     -38047.737      26.643799      1074675.2    
    351500   298.05104     -47564.437      1547.1769     -38120.863      18.499056      1075558.8    
    351600   297.69782     -47597.414      1583.3998     -38126.975     -19.132224      1076427.8    
    351700   304.69874     -47636.492      1529.1457     -38034.829     -18.514278      1075958.6    
    351800   307.37844     -47541.369      1522.5113     -37875.345      29.574964      1075858.6    
    351900   303.66935     -47509.156      1523.4333     -37940.477      6.8960579      1078314.7    
    352000   298.05822     -47603.361      1575.7555     -38131.018     -94.862144      1080681.8    
    352100   300.0936      -47556.028      1524.8193     -38080.697      3.2458865      1077912.3    
    352200   303.11599     -47654.863      1622.4075     -38001.87       51.13113       1073889.4    
    352300   301.26007     -47621.136      1576.7075     -38063.013      19.466584      1074771      
    352400   295.95043     -47625.473      1584.7878     -38199.941     -39.205091      1078799      
    352500   296.46842     -47527.151      1535.8644     -38136.819     -38.326724      1080098.6    
    352600   300.86233     -47573.193      1559.6733     -38042.642     -5.6681842      1077684.8    
    352700   306.00225     -47689.756      1548.8626     -38033.841      3.191048       1074850.3    
    352800   298.16091     -47661.637      1638.3332     -38123.996      18.843979      1074038.6    
    352900   294.62911     -47573.45       1522.3268     -38245.385      32.236923      1075848.7    
    353000   294.10793     -47638.004      1584.587      -38261.486     -45.735313      1077905.6    
    353100   302.40706     -47597.976      1560.4847     -38025.688      39.23063       1076369      
    353200   301.72617     -47586.468      1581.2142     -38011.49       40.670429      1075559.2    
    353300   297.66025     -47601.254      1588.1081     -38127.102     -11.990018      1075644.1    
    353400   297.64506     -47596.865      1515.988      -38195.236      17.131262      1074816.7    
    353500   298.65095     -47646.657      1549.2778     -38185.089      11.353884      1074768.4    
    353600   302.86755     -47664.575      1571.8484     -38068.724     -11.712095      1074822.2    
    353700   302.73688     -47571.475      1584.682      -37966.251     -4.7876535      1075795.1    
    353800   300.68087     -47519.55       1572.533      -37980.946     -24.528563      1078521.7    
    353900   298.88563     -47562.499      1560.6522     -38083.338     -49.160441      1079294      
    354000   297.48368     -47685.657      1604.1769     -38200.114     -36.709421      1076037.2    
    354100   296.34487     -47649.517      1574.5686     -38223.753      95.586005      1071383.6    
    354200   297.80743     -47698.53       1584.432      -38224.155      40.147482      1071846.9    
    354300   299.85184     -47695.085      1603.8496     -38147.129     -43.809222      1075728.1    
    354400   296.78308     -47420.82       1573.5908     -37984.424     -2.3099765      1078538.6    
    354500   303.39364     -47484.375      1559.3402     -37887.094     -27.255962      1078602.7    
    354600   301.40109     -47440.925      1558.8208     -37896.953      9.3519576      1077310.8    
    354700   302.1718      -47579.937      1549.9234     -38024.443     -7.3194977      1075743      
    354800   299.02668     -47638.763      1569.8892     -38146.629      34.952991      1073957.1    
    354900   298.331       -47662.334      1606.1288     -38152.391      29.522077      1073764.1    
    355000   300.40549     -47604.532      1539.0164     -38106.741     -13.359733      1074947.7    
    355100   299.11314     -47547.493      1611.4443     -38011.513      16.384498      1075675.2    
    355200   301.11806     -47448.125      1613.8946     -37856.577      11.81113       1077049.8    
    355300   299.10892     -47361.549      1584.4776     -37852.648     -0.6435997      1079349.6    
    355400   300.91726     -47412.56       1569.5171     -37870.709     -97.284977      1081033.1    
    355500   301.79491     -47409.201      1532.4306     -37881.185      0.93725053     1079299      
    355600   300.0109      -47484.616      1561.0726     -37975.223     -10.248492      1077486.7    
    355700   299.46671     -47595.55       1518.7516     -38142.895      10.042593      1075174      
    355800   297.20589     -47583.935      1556.9355     -38152.994      50.49286       1074098.2    
    355900   300.3349      -47704.987      1606.0761     -38142.006     -3.8776716      1075003.9    
    356000   297.47255     -47599.132      1597.3504     -38120.71      -9.0658301      1075841.8    
    356100   301.48574     -47583.015      1595.9737     -37999.647      0.65660061     1075334.7    
    356200   302.9524      -47543.237      1612.9029     -37904.083      28.535328      1075520.3    
    356300   300.28543     -47509.69       1550.0728     -38004.024     -22.38477       1077294      
    356400   299.26582     -47643.083      1611.1872     -38103.315     -48.128403      1076887.2    
    356500   297.80153     -47562.321      1579.57       -38092.964      52.450027      1074977.9    
    356600   299.20903     -47602.7        1604.717      -38070.906      5.4645831      1074831.9    
    356700   298.43364     -47512.256      1562.1231     -38043.6        34.939776      1076563.8    
    356800   299.94526     -47548.618      1572.6346     -38029.402     -41.573177      1079468.7    
    356900   299.36198     -47551.61       1622.7166     -37997.764     -34.475955      1079117.2    
    357000   300.25303     -47494.158      1589.7767     -37949.645      33.06634       1076844      
    357100   299.05959     -47493.437      1602.8443     -37967.475      17.728377      1076318.6    
    357200   296.09895     -47561.771      1559.2959     -38157.796     -6.0992321      1076765      
    357300   297.05758     -47659.784      1580.1051     -38209.602     -5.1309197      1075302.5    
    357400   301.51457     -47704.525      1553.1644     -38163.202      33.020223      1073586      
    357500   300.26609     -47691.045      1590.3827     -38145.581     -5.9974729      1074914.3    
    357600   299.94297     -47590.317      1550.6568     -38093.139     -20.495123      1076723.3    
    357700   302.028       -47455.893      1528.0811     -37926.051      8.6327222      1077426.1    
    357800   301.47685     -47477.555      1612.4858     -37877.91       3.234192       1077639.1    
    357900   301.99577     -47557.258      1583.7034     -37972.648      10.268363      1077572.4    
    358000   296.78523     -47515.137      1587.6771     -38064.598      6.6807698      1077000      
    358100   299.16799     -47516.68       1510.6238     -38080.067      49.853634      1074776.5    
    358200   300.47502     -47696.516      1629.0787     -38106.82       24.066271      1074018.7    
    358300   297.43795     -47619.148      1546.0087     -38192.985     -4.0727988      1075141.2    
    358400   294.37275     -47620.717      1533.4047     -38288.365     -25.01973       1075179      
    358500   300.79462     -47837.048      1547.7415     -38320.222      11.85765       1071562.8    
    358600   302.47494     -47807.517      1560.3738     -38233.542      35.788351      1068799.3    
    358700   302.10138     -47737.375      1585.0123     -38148.658      30.583317      1070800.6    
    358800   298.40879     -47590.695      1571.2006     -38113.619      1.3337344      1075822.4    
    358900   301.47986     -47539.637      1535.5629     -38016.835     -38.042929      1079246.5    
    359000   305.43268     -47520.205      1557.9968     -37870.246      13.664857      1078358.7    
    359100   300.09288     -47476.033      1602.3867     -37923.153      23.831018      1077398.1    
    359200   294.72358     -47411.927      1565.8386     -38037.847      25.686191      1076917      
    359300   297.74966     -47512.97       1574.7463     -38049.811      15.525481      1075672      
    359400   303.38808     -47634.816      1551.5303     -38045.492      16.976322      1074489.9    
    359500   299.84155     -47552.061      1568.9819     -38039.245      13.074622      1075473.4    
    359600   302.17305     -47569.65       1611.5283     -37952.518     -28.618322      1077186.8    
    359700   303.39481     -47452.951      1597.8997     -37817.079      20.760422      1077407.5    
    359800   299.35066     -47436.038      1616.4683     -37888.741     -33.216001      1078300.5    
    359900   295.3047      -47374.205      1545.5531     -38005.015     -3.8628338      1078414.8    
    360000   299.12824     -47516.669      1582.7975     -38008.936      34.12566       1075673.2    
    360100   301.88085     -47593.156      1608.0005     -37987.294      2.3874436      1073651.3    
    360200   303.6514      -47653.134      1630.8522     -37977.512     -36.862512      1074170.7    
    360300   298.76013     -47520.388      1554.5039     -38050.701      22.920718      1075381.3    
    360400   296.60982     -47563.169      1568.2662     -38136.688     -13.245884      1076051.3    
    360500   295.83769     -47547.912      1594.2763     -38115.878      1.7538888      1074854.6    
    360600   301.8474      -47603.867      1631.8499     -37975.041      48.311447      1072806.2    
    360700   303.65224     -47592.231      1554.0993     -37993.339      18.481508      1074184.5    
    360800   299.52107     -47532.143      1521.5372     -38075.262     -18.568967      1077865.4    
    360900   296.42054     -47453.366      1559.5529     -38040.613     -42.536891      1079459.3    
    361000   300.31142     -47509.226      1590.1641     -37962.779      0.65901035     1078074.8    
    361100   301.99411     -47553.968      1596.7078     -37956.398      29.779481      1076150.8    
    361200   298.02635     -47515.875      1519.8101     -38100.322      12.430355      1076422.8    
    361300   297.73262     -47612.627      1531.0486     -38193.617     -4.0851329      1075199.7    
    361400   302.943       -47802.588      1580.8728     -38195.713     -20.25308       1072882.2    
    361500   299.03317     -47695.613      1581.5175     -38191.678     -16.087607      1072719.5    
    361600   302.92106     -47701.691      1545.6875     -38130.582     -33.24196       1074470.5    
    361700   301.84928     -47575.861      1604.5674     -37974.268     -22.700882      1075856.5    
    361800   302.86753     -47556.486      1590.0769     -37942.407      0.81249433     1075588.1    
    361900   298.03009     -47620.679      1625.4178     -38099.419      4.0059835      1075043.5    
    362000   300.00014     -47647.085      1545.9468     -38153.103     -14.108697      1074578.7    
    362100   305.86582     -47796.022      1577.4763     -38115.108     -28.555532      1073904.6    
    362200   302.29018     -47740.43       1588.9722     -38142.752     -1.1029393      1073278      
    362300   295.81197     -47690.394      1563.286      -38290.031      33.149635      1074377.5    
    362400   296.25747     -47656.316      1534.2096     -38273.227     -32.206679      1075787      
    362500   300.60478     -47670.426      1580.3558     -38126.016      8.0729364      1074223.1    
    362600   302.00521     -47735.307      1608.444      -38125.706      6.2966587      1073432.2    
    362700   300.89513     -47685.766      1539.2353     -38174.783     -15.534353      1075067.9    
    362800   296.577       -47657.042      1585.5477     -38214.149     -14.962058      1075557.9    
    362900   300.45696     -47689.227      1555.6216     -38173.467      13.422553      1074334.1    
    363000   301.18941     -47602.511      1574.2262     -38048.741      49.383631      1073502.1    
    363100   301.95969     -47555.846      1573.2456     -37982.649      6.4417117      1075202.1    
    363200   301.131       -47512.323      1587.7297     -37946.598     -62.411716      1077809.6    
    363300   302.23125     -47432.367      1562.6623     -37862.559      10.285506      1077403.5    
    363400   303.03704     -47466.336      1570.6725     -37867.17       26.922647      1076299.9    
    363500   302.27071     -47649.135      1597.1701     -38043.774     -52.81179       1075900.2    
    363600   300.09652     -47637.339      1565.5707     -38121.179     -6.0916931      1074499.8    
    363700   298.03857     -47659.082      1607.4719     -38155.543      9.6926736      1073850      
    363800   299.52151     -47725.895      1617.4187     -38173.121     -40.208119      1074253.6    
    363900   297.69662     -47599.668      1633.3834     -38079.277      19.153049      1073936.3    
    364000   301.97975     -47539.471      1566.3801     -37972.608      39.419713      1075065.1    
    364100   300.19329     -47501.804      1567.1532     -37981.498      5.0729977      1076986.8    
    364200   299.14712     -47570.198      1554.1213     -38090.64      -33.878155      1078097.4    
    364300   296.62194     -47607.737      1557.5539     -38191.648     -20.022458      1076139.7    
    364400   297.9972      -47579.84       1564.6688     -38120.2        98.115543      1072715      
    364500   305.30355     -47651.66       1576.9465     -37986.172      7.0037233      1073679.9    
    364600   300.73641     -47516.835      1559.662      -37989.631     -25.950609      1078182.4    
    364700   295.41468     -47497.13       1605.6195     -38064.96      -93.603728      1080676.7    
    364800   300.14939     -47624.539      1563.1169     -38109.432     -35.7514        1077689.8    
    364900   301.35823     -47594.599      1562.8796     -38047.703     -7.060999       1073993.6    
    365000   301.21005     -47599.467      1634.8538     -37984.523      28.399044      1073001.2    
    365100   304.42396     -47718.757      1541.2819     -38112.237     -6.9178213      1074947.1    
    365200   295.21338     -47548.276      1510.7918     -38216.266     -10.825815      1077293.2    
    365300   298.35795     -47594.067      1541.9692     -38147.57      -21.703902      1076683.6    
    365400   300.11595     -47571.159      1563.6378     -38056.418      57.862045      1075004      
    365500   300.80612     -47594.241      1581.7152     -38043.137      15.597042      1075824.8    
    365600   299.29567     -47542.69       1540.006      -38073.312     -25.387823      1077413.7    
    365700   299.74487     -47566.323      1495.1787     -38129.872      16.533754      1076215.9    
    365800   296.91056     -47669.614      1494.001      -38309.431     -6.3641741      1074438.3    
    365900   297.48396     -47717.889      1515.8747     -38320.641      50.508741      1072289.9    
    366000   298.68638     -47692.045      1592.4057     -38186.409      29.950364      1073211.3    
    366100   298.51897     -47571.04       1555.4431     -38106.803     -10.728996      1076866      
    366200   299.10722     -47514.431      1557.3292     -38032.723     -28.094216      1079196.4    
    366300   297.67455     -47423.838      1585.1216     -37952.294      11.499429      1078627      
    366400   300.3867      -47476.821      1611.2296     -37907.314     -10.523682      1077333.1    
    366500   301.82824     -47582.904      1571.7268     -38014.708     -6.3295494      1076405.7    
    366600   295.20224     -47589.207      1567.6705     -38200.613      11.792444      1075483      
    366700   299.57911     -47720.973      1626.8096     -38157.283     -28.790918      1073897.5    
    366800   302.88912     -47670.212      1564.5254     -38081.112      8.4799586      1073145.6    
    366900   300.53276     -47640.176      1604.3855     -38073.644      1.1019282      1074823.2    
    367000   297.76035     -47556.949      1562.885      -38105.368     -10.186731      1077298.5    
    367100   295.34147     -47512.833      1569.4618     -38118.759      5.8344535      1078208.4    
    367200   299.17793     -47432.252      1528.4651     -37977.534     -4.7528574      1077534.7    
    367300   301.57996     -47505.985      1582.0405     -37934.054      40.924862      1076075.3    
    367400   300.45769     -47571.769      1604.0359     -38007.576     -20.304139      1077236.5    
    367500   296.15666     -47550.859      1522.3673     -38182.283     -45.523606      1077306.2    
    367600   302.5463      -47726.514      1535.0526     -38175.97      -8.9384734      1074682.9    
    367700   301.09699     -47689.145      1578.0853     -38133.965      21.226103      1073374.8    
    367800   304.8321      -47764.931      1567.1235     -38121.757     -38.112502      1074326.3    
    367900   300.49449     -47643.724      1576.6299     -38105.962     -25.358113      1074812.2    
    368000   301.47539     -47576.328      1567.4208     -38021.787      15.745954      1074959.8    
    368100   303.95484     -47597.829      1598.5823     -37946.437     -18.282948      1076065.2    
    368200   298.01066     -47470.464      1575.0309     -38000.106      4.71722        1077076.6    
    368300   297.59222     -47532.064      1555.7515     -38092.071      3.1104422      1076248.4    
    368400   298.43895     -47601.749      1557.2315     -38137.843     -10.344286      1075229.8    
    368500   298.66869     -47635.624      1543.9561     -38178.907      14.308402      1073850.1    
    368600   299.41963     -47813.087      1613.589      -38266.843      0.22500484     1073107      
    368700   295.70101     -47744.314      1589.2969     -38320.88      -2.2926806      1072999.3    
    368800   302.01182     -47834.607      1578.9937     -38254.281     -0.43631454     1072852.2    
    368900   303.45335     -47732.472      1592.7208     -38100.228      11.86572       1073330.8    
    369000   303.27417     -47727.093      1602.0207     -38090.296     -18.662026      1074576.4    
    369100   296.93996     -47613.029      1606.1617     -38139.907     -9.7661751      1076797      
    369200   300.91937     -47675.88       1564.14       -38139.35      -39.042717      1077365.8    
    369300   301.78594     -47540.292      1580.6138     -37964.331      45.572986      1075794.5    
    369400   301.08593     -47571.459      1638.0787     -37956.579      58.363893      1075968.2    
    369500   297.37139     -47474.703      1550.6285     -38045.683     -43.642354      1079426.2    
    369600   295.1386      -47455.344      1573.985      -38062.122     -3.5558956      1078870.6    
    369700   305.06958     -47559.59       1587.463      -37889.784      18.538368      1075683.2    
    369800   303.87652     -47512.473      1565.3927     -37896.346      41.615023      1075453.2    
    369900   300.8541      -47563.453      1568.1908     -38024.603     -36.234221      1077805.8    
    370000   299.57512     -47549.379      1570.7255     -38041.878     -31.110404      1078331.3    
    370100   299.36804     -47528.543      1584.3032     -38012.951      3.8593615      1076103.3    
    370200   300.21292     -47594.227      1596.6642     -38043.889      26.597915      1073881.5    
    370300   298.48423     -47694.606      1575.9071     -38210.825     -3.9666903      1073651.3    
    370400   293.50534     -47586.98       1575.4139     -38235.6        21.912692      1074074.5    
    370500   299.17726     -47616.426      1574.3221     -38115.869      31.989756      1074248.9    
    370600   300.40069     -47568.16       1533.4649     -38076.047      18.7923        1075107.7    
    370700   297.56469     -47521.002      1542.2119     -38095.278     -4.7717295      1076208.4    
    370800   301.85147     -47627.862      1532.226      -38098.552     -21.873604      1075702.4    
    370900   300.71804     -47615.003      1561.2358     -38086.712      60.75045       1072809.5    
    371000   299.66859     -47618.744      1562.9259     -38116.566      30.564385      1073045.7    
    371100   297.26615     -47591.517      1525.0748     -38190.84      -48.48249       1076465.8    
    371200   301.8008      -47647.502      1517.3491     -38134.412     -39.390062      1077167.9    
    371300   303.1327      -47578.051      1546.0283     -38000.995      49.312263      1074362.8    
    371400   307.07425     -47708.579      1590.7045     -37982.422     -6.4697486      1075017.4    
    371500   296.35074     -47501.783      1561.0106     -38089.422     -27.574103      1078168      
    371600   301.04204     -47586.66       1517.6978     -38093.323     -45.980455      1078489.6    
    371700   300.71157     -47599.827      1563.9399     -38069.004      41.053589      1074844.1    
    371800   301.03684     -47681.222      1595.3885     -38110.332      39.138688      1071690      
    371900   300.53991     -47771.763      1561.5724     -38247.854      20.356466      1070931.9    
    372000   294.34598     -47673.32       1579.3288     -38295.753      30.963446      1073637.8    
    372100   299.96729     -47655.881      1510.1346     -38198.581     -74.091848      1078454.4    
    372200   298.30136     -47514.554      1527.6193     -38083.905     -54.482846      1079549.6    
    372300   302.59746     -47562.259      1567.3028     -37978.109     -3.3032636      1076451.1    
    372400   303.90225     -47685.335      1590.068      -38043.851      35.000834      1073998.2    
    372500   298.30034     -47569.451      1486.8124     -38179.637      37.869704      1074503.9    
    372600   299.10203     -47601.808      1489.9458     -38187.62       1.5392094      1075430.8    
    372700   301.05652     -47583.955      1487.3459     -38120.587     -1.9630948      1075397.2    
    372800   304.81287     -47670.869      1570.343      -38024.985      5.3098933      1074228.8    
    372900   306.77592     -47709.422      1586.8987     -37994.974     -3.7717374      1074554.5    
    373000   301.54737     -47621.625      1492.0473     -38140.551     -37.80252       1077173.3    
    373100   295.92144     -47594.071      1548.675      -38205.42      -20.477518      1077596.7    
    373200   300.18517     -47574.752      1539.0201     -38082.794      11.439447      1075657.1    
    373300   301.2949      -47538.286      1555.2416     -38000.706      47.550972      1074645.7    
    373400   300.46166     -47549.661      1577.5654     -38011.833      18.532647      1075835.7    
    373500   299.21776     -47537.452      1543.9628     -38066.182     -36.704872      1077902.7    
    373600   299.20663     -47619.79       1492.2302     -38200.547     -1.5851269      1077622.1    
    373700   296.66224     -47711.884      1549.6743     -38302.606     -32.127867      1075488.6    
    373800   300.01656     -47706.511      1550.96       -38207.081      22.066962      1073055.7    
    373900   299.40955     -47647.456      1595.2667     -38119.8        48.220769      1073182      
    374000   298.14539     -47584.572      1561.8747     -38123.801     -11.026084      1076572.8    
    374100   296.29227     -47518.413      1572.2544     -38096.357     -60.53063       1078418.2    
    374200   300.46815     -47557.204      1533.9285     -38062.84      -1.4080593      1076369.5    
    374300   300.62621     -47583.497      1568.869      -38050.005      31.347092      1075256.6    
    374400   297.72442     -47527.113      1532.7759     -38106.593      2.8689905      1076351.1    
    374500   297.56476     -47591.034      1502.154      -38205.366      13.541954      1076215.6    
    374600   295.81483     -47649.075      1525.5925     -38286.331      2.5133895      1075667.4    
    374700   296.93044     -47687.82       1551.7996     -38269.311      4.1180709      1074926.8    
    374800   302.70664     -47649.757      1533.6508     -38096.366      37.926584      1074705.4    
    374900   302.81677     -47621.041      1550.2185     -38048.165     -15.38484       1076243.9    
    375000   298.66818     -47518.446      1546.1449     -38059.554     -54.530261      1078188.6    
    375100   298.93486     -47539.827      1550.1714     -38069.844     -35.609372      1078175.4    
    375200   301.11171     -47605.234      1580.0768     -38047.672      0.42831773     1075319      
    375300   302.70097     -47659.497      1581.2048     -38058.702      11.391264      1072976.9    
    375400   298.12635     -47645.827      1545.8864     -38201.548      53.720574      1072914.1    
    375500   301.30234     -47810.773      1562.4031     -38265.834     -56.51926       1074947      
    375600   299.08486     -47721.692      1552.3099     -38245.595      4.1567072      1074584.5    
    375700   302.41681     -47623.477      1543.0428     -38068.373      67.44456       1073154.7    
    375800   304.735       -47630.495      1524.2653     -38032.752      6.7234501      1074787.6    
    375900   296.54018     -47493.544      1530.7463     -38106.428     -37.449684      1078312      
    376000   298.83996     -47579.994      1556.7132     -38105.982     -61.694602      1078100.8    
    376100   305.84597     -47685.767      1514.0124     -38068.843      5.8238358      1073358      
    376200   297.73675     -47592.049      1585.1985     -38118.78       84.512311      1070782      
    376300   298.51559     -47770.807      1508.2985     -38353.804     -22.557667      1073179.2    
    376400   297.61107     -47698.8        1500.0161     -38314.043     -30.100129      1074607.4    
    376500   298.73419     -47688.079      1606.7199     -38166.863      19.353777      1072525.4    
    376600   302.39277     -47759.256      1594.7941     -38153.037      55.631008      1071022.1    
    376700   294.94685     -47647.335      1552.604      -38280.574      36.695175      1073339.2    
    376800   299.8111      -47720.02       1486.2735     -38290.719     -26.297184      1075210.7    
    376900   300.90629     -47709.121      1556.7404     -38180.338      1.2599241      1074138.6    
    377000   301.85041     -47711.113      1628.0001     -38086.057     -1.0627806      1073856.1    
    377100   302.65538     -47738.12       1610.2225     -38109.516     -43.212744      1075823.4    
    377200   298.16792     -47651.451      1586.2112     -38165.746     -24.452685      1076682.6    
    377300   298.11523     -47710.835      1584.0177     -38228.719     -29.794697      1074937.8    
    377400   298.73027     -47823.065      1596.6823     -38311.99       20.621578      1072553.8    
    377500   297.63875     -47852.677      1527.471      -38439.732      23.657849      1071320.1    
    377600   295.29151     -47835.653      1539.8633     -38472.502      7.5848939      1071618.3    
    377700   297.90352     -47724.31       1555.524      -38276.297      44.952172      1071623.6    
    377800   301.85753     -47735.84       1534.0243     -38204.572      5.6160255      1073561      
    377900   298.166       -47635.039      1563.7854     -38171.811     -25.283832      1076730.7    
    378000   299.72487     -47545.361      1549.8434     -38054.775     -14.989817      1077325.1    
    378100   299.2053      -47450.529      1593.1961     -37930.355      11.092697      1077496.2    
    378200   301.5336      -47453.187      1567.2731     -37897.252     -5.5781765      1078011.8    
    378300   299.01986     -47446.344      1566.7529     -37957.527      2.2337811      1077318.2    
    378400   299.33501     -47611.358      1608.6988     -38072.245     -20.290601      1075849.2    
    378500   298.12641     -47592.083      1556.9931     -38136.695      60.381518      1073873.8    
    378600   298.89241     -47641.167      1568.5149     -38153.964      37.809329      1073940.4    
    378700   296.92213     -47573.682      1565.4229     -38141.771     -2.1663958      1075757.6    
    378800   304.53625     -47688.267      1540.8947     -38079.16      -46.635108      1075562.2    
    378900   304.5672      -47636.633      1589.9539     -37977.646      26.338159      1073640.8    
    379000   303.47383     -47685.186      1559.9103     -38085.21      -12.103817      1074325.8    
    379100   297.97951     -47702.045      1596.34       -38211.203     -19.506085      1075280.9    
    379200   300.81441     -47703.392      1535.5358     -38198.248     -4.8965621      1074872      
    379300   299.12453     -47648.925      1577.1018     -38146.985      24.621102      1073924.5    
    379400   300.99797     -47636.921      1584.8461     -38077.603      11.48008       1074327.1    
    379500   301.6954      -47546.139      1526.1563     -38027.034      24.402919      1075905.3    
    379600   300.7178      -47557.861      1609.4659     -37981.346     -58.09416       1078449.2    
    379700   302.96288     -47462.4        1548.9403     -37886.931     -14.654756      1079367.5    
    379800   300.42165     -47400.982      1602.6238     -37839.155      15.527354      1078851.8    
    379900   302.56127     -47498.913      1556.7866     -37926.238      5.1057673      1078476.1    
    380000   297.33786     -47578.201      1624.0378     -38076.66      -64.712365      1078186      
    380100   298.02762     -47542.313      1570.8536     -38075.682      35.272923      1074872.6    
    380200   301.2144      -47729.266      1603.2709     -38145.789      33.24156       1071807.8    
    380300   294.67487     -47679.879      1554.163      -38318.765      36.737093      1072271.5    
    380400   294.53684     -47656.426      1573.6504     -38279.481     -36.426586      1075066.9    
    380500   294.80992     -47531.846      1592.5147     -38128.802      20.311158      1076785.4    
    380600   299.72975     -47572.903      1626.8238     -38005.207     -28.15755       1077725.1    
    380700   301.63712     -47488.049      1575.8351     -37920.809     -21.098163      1078042      
    380800   305.20642     -47562.869      1585.3958     -37891.505     -39.256377      1078170.5    
    380900   301.51005     -47548.525      1585.7187     -37974.768     -23.641661      1077487.4    
    381000   299.38809     -47709.803      1626.1475     -38151.835     -29.344118      1075504.9    
    381100   297.59277     -47670.922      1604.3042     -38182.362      22.610793      1072894.6    
    381200   298.69217     -47650.481      1591.3768     -38145.721     -9.6858218      1072606.9    
    381300   302.01165     -47674.08       1586.0851     -38086.668     -3.029754       1073956.7    
    381400   301.78        -47506.899      1566.6378     -37945.071     -6.8286466      1076168.2    
    381500   301.56104     -47463.133      1588.1951     -37885.549     -17.998055      1078080.7    
    381600   300.44338     -47510.481      1596.4723     -37954.23      -53.441833      1078717.2    
    381700   298.02447     -47556.471      1548.6763     -38112.101     -30.391451      1076442.5    
    381800   297.01451     -47698.209      1625.3547     -38203.918      43.603137      1071749.1    
    381900   299.96042     -47800.094      1624.9125     -38228.198      75.224516      1069093.3    
    382000   295.182       -47670.912      1601.5381     -38248.987      31.489954      1072426.7    
    382100   299.2356      -47720.588      1584.3104     -38208.498     -73.738584      1077137.9    
    382200   299.55743     -47642.286      1573.5182     -38132.461     -20.954668      1076740.8    
    382300   298.85363     -47558.987      1565.1698     -38076.157      22.773681      1074614.2    
    382400   299.59227     -47683.087      1613.8841     -38131.973      23.921313      1073002.4    
    382500   299.15498     -47733.83       1557.579      -38250.606      11.295042      1073482.5    
    382600   295.38877     -47724.746      1628.3919     -38270.489     -1.267318       1074629      
    382700   296.86049     -47666.027      1596.0031     -38205.168     -36.543829      1075201.9    
    382800   300.3536      -47667.109      1573.6429     -38136.066      11.653497      1073839.4    
    382900   298.92973     -47592.242      1575.0446     -38097.521      43.607985      1074399.1    
    383000   300.89662     -47637.252      1550.8874     -38114.578     -35.355639      1077287.2    
    383100   295.79616     -47514.58       1532.752      -38145.17      -10.977964      1078176.4    
    383200   301.94132     -47640.76       1585.4068     -38055.889      38.440796      1075579.1    
    383300   306.40516     -47645.546      1567.2454     -37960.574     -0.13661987     1074464.6    
    383400   298.76628     -47541.208      1591.0121     -38034.85      -3.9522889      1075589.6    
    383500   296.78819     -47619.112      1565.2447     -38190.927     -19.314741      1076042.8    
    383600   302.95074     -47799.152      1532.8788     -38240.066     -21.22801       1072914.8    
    383700   301.87164     -47774.749      1551.3757     -38225.755      83.90302       1070741.3    
    383800   298.27224     -47653.496      1549.7237     -38201.514     -0.43085842     1074136.2    
    383900   301.12421     -47613.694      1533.8902     -38101.987     -27.77585       1076568.6    
    384000   299.57029     -47537.473      1588.7733     -38012.053      4.4109592      1076409.7    
    384100   298.47203     -47487.829      1587.1394     -37993.138      46.925082      1075799.3    
    384200   298.8031      -47501.283      1551.4037     -38033.557      37.699949      1076084.9    
    384300   300.28946     -47589.454      1568.7082     -38065.045     -21.622657      1077390.1    
    384400   302.61761     -47642.494      1563.9934     -38061.119     -44.098038      1077191.2    
    384500   302.61505     -47498.714      1545.3675     -37936.033      6.2048424      1075405.6    
    384600   303.97767     -47483.524      1580.4738     -37849.636      55.795321      1074579.2    
    384700   302.39534     -47485.306      1505.8381     -37967.975     -24.615727      1077180.3    
    384800   295.25585     -47466.771      1590.6814     -38053.746     -8.4348438      1078423.2    
    384900   298.1399      -47499.892      1567.5155     -38033.625      0.39078208     1076736.3    
    385000   299.67214     -47512.53       1572.0143     -38001.17       70.293406      1074417.5    
    385100   298.0943      -47507.757      1594.9181     -38015.296      29.211329      1075257.1    
    385200   300.0202      -47652.159      1524.1686     -38179.423     -35.674566      1076768.6    
    385300   296.97792     -47652.418      1527.209      -38257.242     -18.430263      1076120.9    
    385400   299.08205     -47735.608      1601.8065     -38210.09       27.479751      1074023.1    
    385500   301.58111     -47692.078      1624.3056     -38077.851      3.0421682      1074325.2    
    385600   300.61911     -47481.286      1555.6837     -37961.168      31.305481      1077224.7    
    385700   297.34336     -47383.398      1552.8931     -37952.856     -11.156783      1080042.4    
    385800   302.05537     -47534.037      1566.1476     -37965.403     -37.845549      1079875.6    
    385900   302.97395     -47641.614      1596.2216     -38018.571      13.251622      1076956.5    
    386000   300.39714     -47687.677      1592.8914     -38136.232      45.08768       1075291.6    
    386100   297.26842     -47589.869      1519.7343     -38194.472      27.738102      1076690.1    
    386200   301.02778     -47675.29       1530.1772     -38169.852     -29.524165      1077475.6    
    386300   301.89428     -47657.774      1529.513      -38130.043      17.813656      1075511      
    386400   297.22668     -47528.219      1539.9331     -38113.729      50.934455      1073873.9    
    386500   299.8932      -47563.228      1534.356      -38083.669      23.968837      1075241.2    
    386600   302.89429     -47487.125      1471.9983     -37990.415     -5.8961744      1077724.9    
    386700   300.08658     -47515.473      1579.6056     -37985.542     -11.503142      1078980.5    
    386800   299.06994     -47546.068      1575.0433     -38047.633     -17.875548      1079475.1    
    386900   295.52415     -47542.436      1581.2236     -38131.761      8.4252442      1077766.7    
    387000   299.26153     -47674.076      1561.6662     -38183.942      35.066201      1074498.7    
    387100   300.02332     -47771.173      1518.6071     -38303.917      22.429469      1073679.8    
    387200   295.47309     -47756.324      1522.7207     -38405.505     -17.1146        1074211.1    
    387300   297.97862     -47780.118      1573.6342     -38312.005     -10.901253      1072466.6    
    387400   302.95462     -47796.74       1567.9738     -38202.456      50.638715      1071663.4    
    387500   299.02066     -47629.214      1486.7285     -38220.4        18.155174      1075567.6    
    387600   297.58289     -47608.811      1575.682      -38149.135     -46.609485      1078788.5    
    387700   296.17111     -47448.743      1613.8624     -37988.29       4.0933496      1078959.3    
    387800   300.51512     -47478.885      1564.343      -37952.862      58.657991      1077776.5    
    387900   300.42629     -47570.184      1591.8418     -38019.016     -29.624658      1077657.7    
    388000   300.41867     -47634.156      1564.3885     -38110.644     -47.352348      1076934.2    
    388100   300.85674     -47711.791      1574.1715     -38166.89       7.0337006      1074709      
    388200   298.7253      -47751.775      1543.3825     -38294.131      16.459488      1074017.5    
    388300   296.17092     -47787.914      1609.6261     -38331.701     -14.214179      1074352.6    
    388400   298.57583     -47648.234      1575.6445     -38162.289      17.925704      1074919.1    
    388500   299.83162     -47540.544      1529.6052     -38067.368     -31.363622      1076812.9    
    388600   299.97026     -47486.754      1515.7063     -38023.804      17.245672      1077181.5    
    388700   302.02187     -47584.544      1589.8283     -37993.118     -27.171567      1076924.2    
    388800   300.47066     -47584.367      1584.8561     -38039.009     -25.787395      1076305.6    
    388900   299.15243     -47686.323      1562.4728     -38198.274      14.359947      1074579.1    
    389000   299.09262     -47748.938      1580.3791     -38244.566      6.7383247      1073095.3    
    389100   300.295       -47729.497      1609.2969     -38164.352     -1.2272544      1073069.1    
    389200   304.22496     -47693.184      1589.426      -38043.792      35.006199      1074725      
    389300   299.01563     -47464.581      1550.8078     -37991.821     -11.753309      1078956.5    
    389400   304.05593     -47405.885      1587.9046     -37762.493     -61.202556      1081692.3    
    389500   304.59534     -47403.271      1606.7107     -37726.782     -31.498845      1080228.6    
    389600   303.81267     -47472.989      1548.7757     -37875.17       5.3476468      1077227.4    
    389700   301.95243     -47598.099      1561.1264     -38037.214      62.16818       1074579.4    
    389800   299.91339     -47700.178      1602.9712     -38151.469     -38.283283      1075433.4    
    389900   298.21268     -47651.015      1535.2423     -38215.093      21.572935      1074865.1    
    390000   299.68264     -47771.195      1625.946      -38205.625     -1.1047668      1073340.1    
    390100   301.90811     -47688.65       1590.1464     -38099.919      23.961566      1073713      
    390200   299.35383     -47499.812      1596.8085     -37972.09       6.9962518      1076086      
    390300   302.89493     -47498.522      1564.8265     -37908.967     -53.307805      1078718.1    
    390400   302.5003      -47453.689      1556.6186     -37882.797      15.524013      1079614.8    
    390500   301.36862     -47531.046      1570.1955     -37976.559     -52.839851      1078987      
    390600   302.78225     -47671.85       1538.3846     -38111.722     -10.618865      1075925.8    
    390700   296.76921     -47621.546      1581.2159     -38177.893      54.302857      1073843.8    
    390800   300.48937     -47651.775      1544.4877     -38146.291      30.556252      1075062      
    390900   301.6134      -47531.776      1555.6204     -37985.379     -17.209577      1079588.5    
    391000   294.05491     -47283.556      1603.4799     -37889.55      -11.118673      1082475      
    391100   300.07266     -47404.056      1565.4333     -37888.665     -25.433039      1081094.5    
    391200   302.08483     -47535.284      1583.2587     -37948.759      39.567374      1077419.6    
    391300   301.79917     -47640.205      1544.6196     -38099.887     -4.3297458      1076040.7    
    391400   298.88233     -47571.201      1531.3245     -38121.455     -11.097915      1076822.9    
    391500   295.68609     -47480.471      1570.7805     -38075.949     -3.6795456      1077446.3    
    391600   301.71487     -47567.817      1579.4115     -37994.941     -31.81764       1076481.6    
    391700   300.79236     -47497.519      1601.0414     -37927.454      73.969381      1075097.5    
    391800   300.7743      -47581.191      1556.058      -38056.587     -4.6982102      1076474.5    
    391900   297.5764      -47648.54       1571.8139     -38192.903     -36.352583      1077006.7    
    392000   295.87443     -47501.805      1529.6559     -38133.418      23.830348      1075781.7    
    392100   299.88037     -47548.593      1587.781      -38015.95       39.88573       1075007.9    
    392200   299.48543     -47486.456      1589.9409     -37962.116     -4.0261748      1076732.3    
    392300   302.3803      -47533.462      1545.0205     -37977.347     -30.888906      1078559.2    
    392400   299.21217     -47550.607      1518.0185     -38105.429     -35.980506      1077926.4    
    392500   295.92039     -47562.45       1503.669      -38218.832      24.398757      1074030      
    392600   298.90958     -47787.914      1614.2072     -38254.564      57.389277      1070401.9    
    392700   298.33595     -47756.848      1532.2189     -38320.683      41.361926      1070585.6    
    392800   298.38197     -47892.049      1557.654      -38429.23      -14.683024      1072645.1    
    392900   293.23897     -47727.265      1576.8634     -38381.493     -3.4737112      1073574      
    393000   297.4608      -47686.69       1616.1273     -38189.803      49.232909      1072270.7    
    393100   299.66688     -47645.241      1582.5833     -38123.452      67.886203      1072459.9    
    393200   301.88625     -47729.665      1603.3746     -38128.285     -37.133577      1074395.8    
    393300   300.10911     -47633.08       1559.8864     -38122.271      5.2221545      1074730.8    
    393400   301.58495     -47673.917      1587.994      -38095.9       -3.8917332      1073861.2    
    393500   302.7126      -47654.625      1577.8563     -38056.871      28.602367      1074144.2    
    393600   300.4618      -47663.789      1556.739      -38146.783     -31.596346      1076000.7    
    393700   297.1861      -47648.174      1547.3154     -38227.376     -55.431057      1075927.3    
    393800   300.86479     -47672.908      1579.6696     -38122.295      20.136569      1073215      
    393900   303.94941     -47634.08       1579.9401     -38001.474      61.891386      1072563.8    
    394000   299.60232     -47508.535      1538.7622     -38032.277     -23.492199      1077335.9    
    394100   299.38979     -47534.01       1560.378      -38041.767     -95.101169      1080189.1    
    394200   302.30066     -47567.296      1575.7677     -37982.544     -35.843321      1077663.5    
    394300   301.44542     -47584.596      1610.7558     -37987.514      67.132292      1073158.4    
    394400   297.67764     -47607.729      1548.439      -38172.785      64.033121      1072890.6    
    394500   296.77543     -47577.628      1518.9821     -38196.044     -2.1997104      1076709.4    
    394600   295.57531     -47467.824      1556.9595     -38080.058     -28.217585      1078763.5    
    394700   304.31622     -47591.146      1560.7758     -37967.987     -22.61473       1076942.2    
    394800   300.66728     -47516.469      1561.4072     -37989.351      15.000257      1074487.8    
    394900   299.58221     -47620.069      1549.6062     -38133.5        4.0912407      1073281.2    
    395000   300.77553     -47659.085      1506.3303     -38184.176      10.705305      1073642.9    
    395100   299.84665     -47650.011      1562.3353     -38143.706     -25.035115      1074560.9    
    395200   300.69603     -47548.473      1558.3572     -38023.644     -20.400929      1074448.2    
    395300   301.81799     -47625.96       1609.5394     -38020.223      1.6423603      1073660.2    
    395400   302.68945     -47687.593      1578.9301     -38089.378      3.712864       1074139.3    
    395500   298.18507     -47569.275      1557.0608     -38112.266     -28.109587      1075655.1    
    395600   297.76337     -47549.267      1565.4505     -38095.041      4.7791594      1074802.6    
    395700   300.21558     -47646.032      1582.4675     -38109.821      18.329206      1073419.4    
    395800   298.22553     -47708.698      1556.7199     -38250.959     -16.365404      1073665.2    
    395900   297.04905     -47647.228      1521.0302     -38256.347      4.3242802      1073450.4    
    396000   298.31317     -47539.08       1538.311      -38097.427      50.603083      1073402.8    
    396100   298.9423      -47532.599      1557.0606     -38055.529      9.4817582      1075891.3    
    396200   299.20363     -47518.834      1543.3879     -38048.513     -13.678578      1078007      
    396300   300.83378     -47546.79       1542.4289     -38034.239     -13.252919      1076853.8    
    396400   299.9822      -47556.177      1648.0835     -37960.533      41.230535      1075580.8    
    396500   299.38488     -47444.259      1563.7966     -37948.727      3.1898852      1077867.2    
    396600   294.83874     -47368.036      1564.7161     -37992.028      0.41067522     1080217.6    
    396700   296.9804      -47398.313      1561.0807     -37969.2        16.006998      1079517.2    
    396800   299.83136     -47417.542      1601.3425     -37872.635      36.623995      1077657.2    
    396900   303.06537     -47484.073      1603.7284     -37851.1        16.160077      1077206.2    
    397000   297.69349     -47465.195      1564.4645     -38013.806      22.543763      1078489.2    
    397100   297.90358     -47558.862      1595.7085     -38070.663     -27.715196      1078842.9    
    397200   295.52083     -47421.364      1590.7409     -38001.26       22.500827      1077559.6    
    397300   301.85497     -47529.675      1595.7401     -37936.759      45.20069       1076778.8    
    397400   299.409       -47527.785      1627.2042     -37968.206      5.1432928      1077924.1    
    397500   296.0491      -47478.196      1623.0532     -38011.783     -15.647704      1078593.8    
    397600   299.11514     -47475.39       1556.8236     -37993.978      13.457606      1078072.3    
    397700   304.33141     -47567.82       1527.0458     -37977.988     -6.6129211      1077005.9    
    397800   296.77162     -47427.827      1555.7305     -38009.595      48.218615      1076580.1    
    397900   296.68725     -47520.84       1551.2923     -38109.282     -36.679691      1077050.3    
    398000   300.69751     -47657.204      1498.8532     -38191.839     -3.0819995      1074381.4    
    398100   301.57345     -47844.553      1591.3543     -38263.481      21.464876      1071782.8    
    398200   298.22728     -47797.796      1541.8722     -38354.857      1.5947019      1072038.1    
    398300   295.70305     -47726.203      1491.9355     -38400.076     -2.1820411      1073217.9    
    398400   296.55149     -47699.972      1551.9549     -38291.348      36.948828      1073324.2    
    398500   300.05192     -47667.163      1569.2006     -38148.555      9.1988894      1074381.6    
    398600   300.411       -47648.838      1591.0157     -38098.901     -25.288059      1075962.6    
    398700   300.35589     -47560.857      1539.4365     -38063.96       10.913417      1076408.3    
    398800   299.7468      -47449.342      1522.7833     -37985.235      5.8508068      1076227.8    
    398900   301.87987     -47467.163      1584.7363     -37884.591      22.923705      1075906.8    
    399000   305.4272      -47588.831      1559.9287     -37937.085     -39.504737      1076031.7    
    399100   303.31237     -47661.083      1519.2662     -38106.029     -4.5343105      1076328.7    
    399200   296.65357     -47573.155      1565.688      -38148.093     -10.183573      1075975.6    
    399300   297.38666     -47529.465      1531.8177     -38118.852      13.260028      1075130      
    399400   300.87035     -47570.453      1574.6648     -38024.698      41.67333       1074954.1    
    399500   304.12051     -47508.009      1565.4447     -37885.366      19.054175      1077464.4    
    399600   299.83639     -47398.869      1593.2212     -37861.95      -47.87986       1081130.7    
    399700   300.40584     -47295.085      1540.8032     -37795.497     -23.489805      1081489.6    
    399800   307.66369     -47443.874      1581.7249     -37711.08      -8.6099265      1078283.4    
    399900   305.06174     -47550.047      1603.4784     -37864.433      43.29603       1075548.5    
    400000   295.19903     -47407.91       1581.3237     -38005.749      60.439206      1076469.3    
    400100   299.18875     -47520.444      1529.9389     -38063.966     -16.893271      1078754.3    
    400200   302.40549     -47646.964      1569.2531     -38065.949     -74.637428      1078067.4    
    400300   304.62696     -47701.115      1545.896      -38084.603      25.441081      1073492.2    
    400400   300.98796     -47807.946      1559.1454     -38274.594      30.005692      1070702.9    
    400500   297.42687     -47792.601      1560.3131     -38352.428      9.2641263      1071827.2    
    400600   296.19277     -47751.03       1599.7937     -38304.071     -5.2566233      1073106.4    
    400700   297.40272     -47610.037      1567.7085     -38163.107      8.0907582      1074251.8    
    400800   301.90465     -47657.889      1572.4068     -38086.99       6.7622924      1075950.3    
    400900   297.73108     -47510.251      1545.3762     -38076.954     -13.989948      1078480.5    
    401000   301.73467     -47602.467      1579.9278     -38028.55      -42.136809      1079094.3    
    401100   303.92686     -47486.532      1507.7579     -37926.706      27.757384      1077713.3    
    401200   301.31042     -47488.08       1616.8257     -37888.505      27.45351       1077522.8    
    401300   299.04735     -47529.159      1565.2602     -38041.105     -29.769496      1078059.1    
    401400   298.79586     -47636.174      1582.1844     -38137.859     -8.1149493      1076033.4    
    401500   300.26898     -47731.225      1594.7623     -38181.304      17.668203      1073216.9    
    401600   299.0033      -47732.025      1534.0673     -38276.331      22.470974      1073195.9    
    401700   294.77116     -47751.978      1536.5123     -38405.964     -20.789271      1073963.1    
    401800   299.63888     -47794.704      1566.1119     -38290.128      49.870774      1072211.3    
    401900   300.88053     -47706.86       1589.3955     -38146.104     -8.4032815      1072817.4    
    402000   301.79084     -47668.749      1526.3553     -38146.916     -29.883476      1074680.1    
    402100   298.33593     -47603.042      1526.9021     -38172.195     -4.8053919      1076171.6    
    402200   299.19761     -47628.805      1561.5392     -38140.492     -18.770785      1077131.5    
    402300   298.70049     -47496.699      1591.3312     -37991.764     -14.649883      1077694      
    402400   303.38378     -47515.641      1541.8007     -37936.16      -21.537112      1076907.9    
    402500   302.56431     -47583.236      1547.2254     -38020.042      29.298269      1075675.1    
    402600   298.70198     -47607.834      1517.1839     -38177.007     -13.484091      1076048.9    
    402700   299.66348     -47638.322      1507.5856     -38191.62      -14.095339      1075906.6    
    402800   299.49258     -47633.699      1558.614      -38140.497      1.1675643      1075193      
    402900   300.18964     -47600.008      1587.4057     -38059.546      11.858999      1075012.7    
    403000   302.64715     -47549.845      1535.8944     -37995.787      17.989772      1075994.3    
    403100   302.00141     -47441.295      1558.6018     -37881.637      11.167768      1077485.3    
    403200   301.28416     -47388.866      1606.6529     -37800.16       11.907687      1078870      
    403300   302.1515      -47456.569      1551.2994     -37900.237     -69.829899      1080072.1    
    403400   298.40036     -47478.374      1526.9265     -38045.796      7.9438464      1077953.1    
    403500   301.42823     -47613.587      1567.6264     -38060.09       32.63413       1074989.4    
    403600   298.85222     -47578.223      1579.4859     -38081.114      20.656874      1075757.8    
    403700   297.77257     -47514.924      1539.5701     -38086.334      2.2926504      1078934.8    
    403800   298.90934     -47435.097      1554.4663     -37961.494     -1.9931877      1080975      
    403900   303.19057     -47413.012      1546.1335     -37834.317     -27.535925      1081235.5    
    404000   304.6554      -47512.254      1594.0667     -37846.818     -35.832023      1079340.6    
    404100   300.11782     -47515.713      1568.249      -37996.31       7.7304897      1077039      
    404200   298.20766     -47552.42       1567.5745     -38084.299     -3.3145509      1076825.7    
    404300   299.72451     -47574.749      1546.4106     -38087.605      1.0071954      1077358.8    
    404400   296.3471      -47484.723      1577.4732     -38055.996      15.351909      1077748.6    
    404500   302.95775     -47551.059      1570.9983     -37953.668     -7.2985186      1078272.7    
    404600   301.91542     -47459.926      1597.822      -37863.326      10.484765      1079093.8    
    404700   302.65798     -47608.681      1598.9706     -37991.26      -52.113183      1078459.3    
    404800   300.58227     -47608.446      1532.7334     -38112.254      56.216554      1075523.4    
    404900   302.40826     -47684.767      1558.79       -38114.142      15.383212      1074129.4    
    405000   299.82403     -47580.15       1552.3054     -38084.475      18.562019      1074992.9    
    405100   301.63597     -47536.251      1555.3916     -37989.485     -16.072091      1077791.4    
    405200   301.78357     -47352.789      1518.9791     -37838.525      9.5791242      1079987.9    
    405300   303.19447     -47334.449      1520.2835     -37781.501     -8.4907239      1080614.1    
    405400   302.16357     -47421.406      1558.3195     -37857.734     -1.184879       1079145.7    
    405500   298.50883     -47414.003      1573.3616     -37932.116     -13.743229      1077991.8    
    405600   300.79794     -47487.243      1564.9824     -37953.088     -1.0626064      1076179.7    
    405700   298.76299     -47464.446      1540.396      -38008.791      24.166321      1075269      
    405800   297.88658     -47605.879      1576.9402     -38136.899     -16.594619      1075565.3    
    405900   299.54001     -47688.867      1561.3105     -38191.711     -48.235473      1074641.2    
    406000   299.41603     -47677.255      1544.8231     -38199.871      62.01425       1072418.5    
    406100   298.83967     -47613.838      1507.7058     -38188.841      29.847693      1073856.6    
    406200   304.56776     -47668.751      1514.9999     -38084.703     -19.720271      1076733      
    406300   302.43746     -47579.543      1595.1069     -37971.827     -49.299388      1078689.7    
    406400   303.03719     -47499.963      1567.7402     -37903.725     -14.591332      1077775      
    406500   303.05018     -47610.254      1600.1087     -37981.304     -3.906382       1075377.1    
    406600   297.82364     -47628.317      1604.436      -38133.509      23.233868      1073810.5    
    406700   298.50678     -47636.159      1568.6917     -38158.996     -2.0182016      1074936.5    
    406800   298.72608     -47571.818      1584.2682     -38073.268     -35.262766      1077626.4    
    406900   297.18717     -47387.398      1567.1228     -37946.765      32.68294       1078732.5    
    407000   300.17497     -47471.867      1579.6981     -37939.502      19.403662      1079132.3    
    407100   299.33316     -47486.58       1551.1867     -38005.028     -2.6769125      1079127.4    
    407200   301.08025     -47580.538      1548.548      -38055.339     -1.0897226      1078273.3    
    407300   301.81322     -47603.089      1549.3678     -38057.651      5.0054369      1077094.9    
    407400   300.688       -47573.615      1558.9288     -38048.427      46.073213      1076091.8    
    407500   299.04325     -47611.221      1610.1936     -38078.343     -45.76788       1078691.8    
    407600   296.59199     -47477.812      1592.1594     -38027.91       6.7569431      1079942.9    
    407700   302.40782     -47450.05       1543.0288     -37895.198      14.55922       1079512.7    
    407800   303.30207     -47470.951      1540.2094     -37895.226      10.715967      1079338.4    
    407900   299.56638     -47481.642      1517.8846     -38027.213      7.2504392      1079768.5    
    408000   300.86785     -47609.194      1553.6969     -38084.473     -48.150012      1078994.2    
    408100   300.89701     -47673.051      1632.8217     -38068.433     -23.213466      1076902.2    
    408200   302.13667     -47669.102      1587.8755     -38076.587      40.646673      1075749.8    
    408300   300.48262     -47668.179      1571.0233     -38136.338     -36.318776      1077488.9    
    408400   297.14424     -47612.851      1545.8523     -38194.626     -54.73732       1078253.1    
    408500   304.42101     -47682.565      1545.8602     -38071.545      13.446269      1075428      
    408600   303.40161     -47576.099      1555.4263     -37982.52       89.95628       1074622.8    
    408700   301.24685     -47558.741      1552.12       -38025.556     -39.362051      1079421.1    
    408800   299.58625     -47544.508      1539.9249     -38067.513     -63.105492      1081994.8    
    408900   302.1108      -47512.137      1537.0299     -37971.153     -3.7749637      1078744.9    
    409000   303.01276     -47569.657      1627.6356     -37914.171      59.852096      1074562.7    
    409100   301.22872     -47608.6        1538.7793     -38089.235      59.96536       1074777.5    
    409200   297.70389     -47607.902      1557.5089     -38163.193     -20.524567      1078056.4    
    409300   299.51296     -47628.033      1600.2231     -38092.681     -54.103791      1079002.8    
    409400   302.07439     -47605.131      1619.0897     -37983.052     -11.038502      1077066.7    
    409500   304.27613     -47619.33       1604.2398     -37953.768      32.890088      1076684.6    
    409600   300.31948     -47589.148      1558.1261     -38074.526     -32.378676      1078209.3    
    409700   299.38498     -47672.636      1502.9709     -38237.927     -3.4522314      1077167.6    
    409800   301.5595      -47829.808      1626.5642     -38213.895      14.702691      1074239.3    
    409900   294.78766     -47560.038      1611.6669     -38138.432      61.827735      1074019      
    410000   300.20844     -47609.096      1605.0382     -38050.503      18.143436      1076928.2    
    410100   300.67248     -47474.549      1604.293      -37904.407     -19.323094      1080167.1    
    410200   304.50996     -47376.982      1508.1554     -37801.31       12.432645      1080749.8    
    410300   300.49644     -47412.326      1611.242      -37839.9        6.9007031      1079926.1    
    410400   304.95533     -47524.466      1545.3763     -37899.773      27.743529      1079010.8    
    410500   299.22038     -47461.596      1606.1371     -37928.082     -5.5048331      1079826.2    
    410600   299.75861     -47482.061      1583.8394     -37956.585     -44.861734      1079410.3    
    410700   299.24214     -47527.079      1568.696      -38030.43      -13.846813      1076921      
    410800   299.04079     -47637.899      1563.655      -38151.624      7.2183472      1074050.7    
    410900   298.61278     -47717.357      1601.7129     -38204.364      24.973994      1073041      
    411000   296.45045     -47727.276      1594.2796     -38279.004      0.05808212     1074624.2    
    411100   298.19592     -47804.559      1555.402      -38348.922     -30.119625      1075947      
    411200   301.0628      -47713.508      1535.1804     -38202.138     -12.971972      1075413.8    
    411300   300.76711     -47583.587      1514.7149     -38100.516      10.821935      1074697.2    
    411400   299.44574     -47596.172      1592.9303     -38069.894      24.588767      1075533.4    
    411500   303.90521     -47684.978      1573.1618     -38060.322     -80.04959       1076584.5    
    411600   298.26446     -47477.467      1590.333      -37985.083      7.6056004      1075981.6    
    411700   306.04086     -47530.939      1554.8409     -37868.023      46.600381      1075677.7    
    411800   303.32675     -47512.173      1584.6066     -37891.398     -30.10382       1078515.3    
    411900   296.43264     -47494.908      1602.6341     -38038.754     -72.857524      1079618.4    
    412000   299.75663     -47539.796      1526.6145     -38071.598      1.4607135      1076447.4    
    412100   299.59751     -47603.974      1599.4263     -38067.18       43.080875      1073563.2    
    412200   299.31802     -47642.544      1547.6428     -38164.937      12.955904      1073495.2    
    412300   295.23908     -47713.973      1613.8478     -38278.226     -8.4501272      1073952.5    
    412400   298.91267     -47720.183      1567.1257     -38233.833      1.0910682      1074097.9    
    412500   299.66372     -47634.198      1592.3282     -38102.747      15.688414      1074178.1    
    412600   300.49063     -47519.438      1529.259      -38029.149      37.478587      1075609.9    
    412700   301.07781     -47541.828      1542.956      -38022.285     -19.339884      1077858.6    
    412800   299.83665     -47446.216      1534.3679     -37968.144     -29.476776      1078716      
    412900   309.04901     -47499.525      1561.9896     -37749.764      19.163361      1077902.7    
    413000   302.66543     -47372.136      1547.5997     -37805.888     -3.7771427      1079078      
    413100   301.28105     -47466.098      1560.0929     -37924.034     -23.16972       1079821      
    413200   302.47179     -47535.021      1537.3313     -37984.172     -45.501568      1078600.8    
    413300   299.12498     -47523.586      1561.131      -38037.605      27.264345      1075336.1    
    413400   299.34209     -47614.849      1521.9429     -38162.305      63.150536      1073344.7    
    413500   297.71368     -47789.596      1576.2487     -38325.888     -34.100189      1074164      
    413600   295.76432     -47653.429      1541.4208     -38276.194      14.215127      1074562.4    
    413700   296.82165     -47581.934      1562.0688     -38156.038      7.0035932      1074793.9    
    413800   301.12589     -47626.109      1586.2813     -38061.967     -25.616529      1074064.7    
    413900   303.0128      -47636.812      1559.6439     -38049.317      10.356761      1074226.5    
    414000   299.70813     -47631.236      1530.369      -38160.568     -29.060468      1076312.7    
    414100   293.40283     -47607.772      1576.2499     -38258.272     -8.1897429      1076988.4    
    414200   299.45267     -47632.417      1542.0549     -38156.831     -22.015434      1074960.5    
    414300   304.23318     -47648.471      1604.8222     -37983.466      56.279167      1072737.2    
    414400   300.50467     -47603.105      1595.3271     -38046.375     -28.825244      1075718.5    
    414500   299.1887      -47616.311      1551.8407     -38137.932     -44.788237      1078173      
    414600   298.33715     -47554.146      1535.8536     -38114.315      3.1269786      1076744.1    
    414700   304.69418     -47663.82       1602.4018     -37989.021      41.948099      1074360.8    
    414800   305.97873     -47523.268      1497.2219     -37919.617      30.799112      1075841.4    
    414900   299.28643     -47532.352      1572.5137     -38030.711     -33.805908      1079265.2    
    415000   299.31472     -47624.611      1557.8536     -38136.881     -72.409586      1079037.8    
    415100   299.13378     -47605.379      1536.9251     -38143.371      20.200818      1074584.9    
    415200   300.39728     -47713.641      1576.6537     -38178.43       57.936449      1071190.2    
    415300   295.2267      -47690.075      1520.1835     -38348.321      48.376272      1071670.6    
    415400   294.70538     -47767.849      1613.1311     -38346.959     -40.538611      1074007.8    
    415500   294.26639     -47538.893      1543.9994     -38198.765      46.946105      1074404.2    
    415600   298.97768     -47576.407      1524.4849     -38130.975     -4.5072695      1074706.3    
    415700   301.11881     -47632.163      1534.2341     -38120.256     -5.5537268      1075707.4    
    415800   298.34022     -47508.305      1470.4419     -38133.804      7.8960714      1076487      
    415900   299.02844     -47534.152      1557.0958     -38054.764      3.3834696      1075997.8    
    416000   303.00194     -47550.278      1568.7892     -37953.925      0.022273343    1075261.8    
    416100   300.84789     -47527.563      1534.5462     -38022.522      7.2364179      1075871.5    
    416200   296.19744     -47581.385      1571.7503     -38162.346     -25.321865      1077235.5    
    416300   296.63081     -47629.358      1584.9046     -38185.683     -4.3581403      1075869.2    
    416400   299.22801     -47579.895      1536.0993     -38116.216      48.893007      1074911      
    416500   299.41528     -47582.446      1555.303      -38094.603     -3.2429159      1077350.8    
    416600   297.24931     -47480.533      1557.7779     -38047.599     -0.067006184    1079231.1    
    416700   303.12741     -47520.11       1516.8565     -37972.365     -40.267217      1078321.5    
    416800   306.01507     -47630.779      1607.3813     -37916.006     -3.3506068      1076904.7    
    416900   300.56125     -47445.116      1554.4817     -37927.733     -10.210488      1078389.9    
    417000   299.91257     -47545.675      1550.1133     -38049.846     -35.232636      1079939.8    
    417100   295.78288     -47490.484      1519.663      -38134.515     -13.615908      1077863.8    
    417200   299.76393     -47593.584      1539.9173     -38111.889      60.776671      1074385.2    
    417300   298.53715     -47632.413      1577.1689     -38145.969      58.676074      1074038.5    
    417400   298.19762     -47766.305      1573.0769     -38292.947     -49.853414      1076012.8    
    417500   292.78837     -47604.529      1554.7216     -38292.836      2.6541522      1075844.8    
    417600   299.12443     -47644.106      1582.0215     -38137.25       28.70112       1074207.4    
    417700   300.97736     -47635.402      1556.464      -38105.013      23.668892      1074718.7    
    417800   297.77851     -47547.488      1524.1395     -38134.172     -21.303547      1076891.1    
    417900   296.06352     -47483.927      1568.9315     -38071.255     -0.89300435     1077049      
    418000   304.12371     -47576.579      1607.5789     -37911.717      8.4611277      1075741.2    
    418100   304.32872     -47553.295      1595.2822     -37895.298      22.047043      1076847.7    
    418200   298.58355     -47582.649      1545.1759     -38126.967     -61.761015      1079292.8    
    418300   297.05053     -47520.674      1521.7756     -38129.008     -21.184386      1077673.7    
    418400   297.64099     -47521.159      1603.9224     -38031.703      41.935457      1074160.8    
    418500   305.49187     -47721.643      1606.1144     -38021.998      9.2097254      1072659.7    
    418600   298.56383     -47628.769      1575.9134     -38142.872      2.5040614      1074598      
    418700   298.5732      -47685.232      1528.7798     -38246.221     -37.500886      1076583.6    
    418800   299.25605     -47617.667      1508.514      -38180.831     -32.273866      1075254.5    
    418900   303.33908     -47722.739      1553.1594     -38133.084      33.454042      1072539.3    
    419000   304.54013     -47797.572      1564.6391     -38164.617     -4.8662943      1072676.3    
    419100   300.79052     -47689.975      1498.7243     -38222.275     -36.875464      1075309.5    
    419200   293.7045      -47573.099      1572.0178     -38219.839     -30.777655      1076795.5    
    419300   300.20645     -47545.843      1560.9872     -38031.354      23.618153      1075728.8    
    419400   303.48475     -47618.713      1586.7634     -37991.595      22.665034      1075185.8    
    419500   302.66448     -47646.088      1548.471      -38078.994     -36.694374      1075921      
    419600   295.70874     -47535.519      1533.2618     -38167.915     -1.4081786      1076384.3    
    419700   298.07313     -47635.567      1565.9279     -38172.657     -23.146263      1075564.1    
    419800   303.49485     -47567.641      1576.9914     -37950.027      31.844213      1074777      
    419900   302.3451      -47551.565      1595.7079     -37945.695     -16.181433      1076516      
    420000   299.5965      -47486.191      1499.8592     -38048.99      -1.0712629      1077995.6    
    420100   299.1824      -47580.898      1545.7467     -38108.781     -51.498519      1077228.9    
    420200   303.76093     -47705.967      1533.1544     -38125.14       20.38242       1072856.6    
    420300   300.77782     -47812.268      1605.1923     -38238.436      22.072004      1071294      
    420400   293.9906      -47735.943      1606.3654     -38340.755      8.7685603      1072958.6    
    420500   298.05822     -47742.546      1603.009      -38242.949     -46.927547      1074732.9    
    420600   302.7295      -47730.492      1588.7575     -38121.389      0.20385332     1074096.3    
    420700   301.75954     -47712.681      1624.0797     -38093.953      20.607552      1073186.9    
    420800   302.44196     -47750.146      1584.2655     -38153.153     -7.2975474      1074123.5    
    420900   296.64364     -47679.369      1546.8743     -38273.385     -56.657173      1075281.1    
    421000   297.29525     -47866.131      1615.9151     -38373.842     -0.97959757     1072621.3    
    421100   296.81174     -47924.168      1528.3274     -38532.276      3.0470088      1070018      
    421200   296.71212     -47915.251      1554.9683     -38499.358      51.435954      1068559.3    
    421300   303.43183     -47951.781      1560.9523     -38351.876      42.214423      1070302.7    
    421400   298.12723     -47782.012      1569.8844     -38313.712     -8.1614555      1074158.9    
    421500   298.79536     -47767.328      1618.2318     -38232.98      -46.824577      1076200.1    
    421600   299.64774     -47704.638      1611.9784     -38153.96      -36.844143      1075031.7    
    421700   296.79651     -47614.919      1591.9901     -38159.769      53.687361      1072866.9    
    421800   298.62165     -47695.989      1578.6995     -38205.774      24.463655      1072931.1    
    421900   297.30452     -47653.175      1550.1451     -38226.411      1.3073096      1073577.9    
    422000   301.00356     -47711.08       1511.9708     -38224.489      19.261579      1073851.9    
    422100   303.38296     -47783.51       1535.604      -38210.248     -41.148865      1074985.5    
    422200   299.4431      -47699.191      1582.9848     -38182.929     -2.6740885      1074435.6    
    422300   301.76727     -47661.996      1549.3678     -38117.775      20.274456      1073778.8    
    422400   300.90649     -47503.526      1589.3484     -37942.13       13.013263      1075791      
    422500   299.72485     -47443.108      1623.421      -37878.944     -27.488161      1078839.3    
    422600   302.00801     -47443.152      1516.2765     -37925.645     -27.726744      1080253.2    
    422700   298.29706     -47486.068      1546.0999     -38037.053     -23.518724      1078917.4    
    422800   302.20356     -47697.18       1605.6912     -38085.077      15.017208      1075031.8    
    422900   301.66988     -47702.076      1574.1037     -38135.699      53.317995      1072766.7    
    423000   296.31614     -47679.155      1572.2592     -38256.461     -8.7676144      1074635.7    
    423100   297.8807      -47683.874      1549.2733     -38242.716     -18.752479      1075883.9    
    423200   303.14584     -47709.784      1568.2507     -38110.157     -0.13806361     1074285.8    
    423300   304.18774     -47680.508      1558.8726     -38062.655     -6.3051546      1074448.1    
    423400   302.25653     -47645.215      1517.138      -38120.262      5.6512379      1075900.9    
    423500   296.98907     -47598.447      1578.9194     -38151.266     -9.4235798      1076875.8    
    423600   297.08119     -47586.144      1602.314      -38113.128      11.820829      1076268.1    
    423700   301.03597     -47568.919      1581.8713     -38011.57       55.759414      1075187.8    
    423800   300.68572     -47577.643      1603.5682     -38007.876      0.29338599     1075984.6    
    423900   302.23132     -47534.413      1520.9333     -38006.332     -35.395115      1077373.9    
    424000   302.91107     -47469.809      1474.8465     -37969.807     -16.870559      1076860.5    
    424100   302.53123     -47572.094      1546.2189     -38010.782      33.847978      1074719.3    
    424200   301.19793     -47721.646      1577.7171     -38164.16       6.0037154      1073549.6    
    424300   299.42091     -47722.32       1526.0008     -38263.629      19.672109      1073377.3    
    424400   298.32552     -47762.977      1565.7016     -38293.606     -22.112019      1073832.8    
    424500   298.21604     -47665.371      1572.2109     -38192.392      47.685504      1073800.2    
    424600   300.46441     -47553.055      1535.9688     -38056.75      -1.2292858      1076291.3    
    424700   298.08706     -47511.634      1598.0236     -38016.258     -43.207331      1078689.4    
    424800   302.18923     -47565.306      1581.8601     -37977.413     -36.785971      1078085.7    
    424900   300.25939     -47502.706      1590.2804     -37957.522      21.983969      1076512      
    425000   295.56778     -47484.327      1598.8424     -38054.878      44.970722      1076215.8    
    425100   298.52921     -47646.605      1540.0033     -38197.536     -13.630217      1076257.2    
    425200   297.88993     -47540.305      1495.2039     -38152.972     -9.946385       1075426.3    
    425300   303.40514     -47682.014      1603.6346     -38040.133      39.064483      1072855.2    
    425400   300.1709      -47587.467      1622.0027     -38012.904     -10.873349      1074867.5    
    425500   298.22654     -47493.161      1561.1866     -38030.927     -27.368667      1078211.3    
    425600   298.37448     -47501.674      1577.7231     -38018.985     -48.527178      1078461      
    425700   299.98823     -47458.851      1572.1047     -37939.026      54.346027      1075987.4    
    425800   299.94918     -47502.969      1620.5096     -37935.773      22.78047       1075730      
    425900   299.54662     -47565.925      1576.3946     -38053.51       0.13710608     1075958.3    
    426000   297.45691     -47607.943      1583.0575     -38144.229     -40.469208      1075807.6    
    426100   298.954       -47628.19       1588.6745     -38119.196      21.260621      1074173.4    
    426200   300.91019     -47645.942      1648.3868     -38025.41       29.535759      1074083.5    
    426300   301.48823     -47475.802      1633.421      -37854.921      6.1356048      1076816      
    426400   295.20915     -47275.941      1592.6894     -37862.145     -2.4276529      1080110.4    
    426500   298.37606     -47388.6        1603.917      -37879.675     -79.644944      1081504.9    
    426600   298.3439      -47351.796      1593.9541     -37853.686      27.122867      1078662.7    
    426700   303.07581     -47543.314      1620.7811     -37893.013      43.316217      1075468.4    
    426800   300.20264     -47650.783      1625.0012     -38072.382     -17.159723      1076141.9    
    426900   299.50875     -47652.579      1589.0579     -38128.504     -56.247529      1077740.5    
    427000   302.52485     -47685.171      1553.3446     -38116.902     -41.334931      1077074.7    
    427100   302.49537     -47609.35       1583.0481     -38012.159     -0.4644612      1074856.2    
    427200   305.80189     -47619.759      1612.4595     -37905.556      23.458774      1074167.8    
    427300   303.46684     -47587.459      1523.6289     -38023.95      -24.9083        1077068.8    
    427400   296.91802     -47553.219      1529.6919     -38157.147     -60.841512      1078689.9    
    427500   300.65445     -47595.109      1543.0969     -38086.641      24.096764      1075365      
    427600   304.34928     -47718.745      1591.6858     -38063.8        38.559712      1072928.3    
    427700   297.82289     -47647.937      1597.7615     -38159.822     -8.0457355      1075172.3    
    427800   297.18407     -47659.369      1540.3041     -38245.637     -68.16639       1076462      
    427900   302.99075     -47644.826      1521.7296     -38095.829      44.819704      1073589.4    
    428000   305.30922     -47647.897      1541.252      -38017.954      73.179027      1071454.1    
    428100   296.98556     -47536.669      1559.3552     -38109.145      29.0311        1073995      
    428200   295.5057      -47549.045      1565.6752     -38154.407     -52.909943      1077651.4    
    428300   301.97915     -47554.294      1520.5565     -38033.272     -11.239284      1076615.4    
    428400   306.47293     -47603.98       1571.2531     -37913.205      63.578063      1073260.2    
    428500   303.9243      -47583.516      1533.7763     -37997.74      -2.6964269      1074497.4    
    428600   298.66678     -47538.171      1558.0398     -38067.421     -21.557378      1076547.1    
    428700   299.41161     -47505.054      1535.0646     -38037.546     -5.7084914      1076828.4    
    428800   300.86362     -47494.258      1593.7849     -37929.56       0.38262353     1075155.1    
    428900   301.48894     -47432.985      1616.6903     -37828.816      59.333305      1074329      
    429000   300.86608     -47474.312      1556.2806     -37947.054     -22.609197      1077805.6    
    429100   296.03738     -47479.561      1560.8934     -38075.619     -26.353238      1078050.9    
    429200   300.93421     -47572.944      1545.6469     -38054.515      46.247157      1073748      
    429300   301.10381     -47656.799      1582.5719     -38096.951      49.606665      1072335      
    429400   294.54249     -47639.466      1612.7894     -38223.233     -47.030575      1074976.6    
    429500   296.91274     -47597.792      1511.169      -38220.383     -34.216783      1075308.5    
    429600   301.1997      -47570.296      1568.8446     -38021.635      26.589348      1073518.9    
    429700   303.35345     -47589.703      1533.388      -38019.438      32.282834      1073634.7    
    429800   296.76882     -47535.164      1554.8012     -38117.936      2.2085283      1075399.4    
    429900   297.64588     -47702.403      1599.1989     -38217.541     -25.820135      1074495.2    
    430000   300.73798     -47804.513      1576.1284     -38260.801      12.782305      1072483.5    
    430100   296.64253     -47733.167      1537.5004     -38336.586      20.816173      1072511.7    
    430200   294.2873      -47733.511      1506.119      -38430.709      23.371139      1074022.6    
    430300   297.48417     -47717.408      1525.984      -38310.045     -24.697127      1075059.4    
    430400   300.38365     -47641.896      1523.4191     -38160.281     -5.9996381      1074251.8    
    430500   298.27726     -47582.699      1614.2546     -38066.054      35.094499      1074085.3    
    430600   298.65921     -47534.825      1578.5432     -38043.772      31.061775      1075888.8    
    430700   298.54243     -47589.611      1565.9989     -38114.196     -32.93991       1078281.8    
    430800   296.26313     -47530.757      1531.2372     -38150.49      -44.785501      1078183.6    
    430900   300.573       -47581.982      1582.51       -38036.26       33.369414      1074621.8    
    431000   302.20603     -47561.774      1587.5995     -37967.698      75.788708      1073294.3    
    431100   297.8416      -47549.54       1561.7662     -38096.925     -6.3562733      1076504.4    
    431200   297.53161     -47578.24       1548.5742     -38147.03      -69.211572      1078243.1    
    431300   299.15634     -47569.538      1546.9699     -38096.888      20.432101      1076541.5    
    431400   298.83579     -47559.945      1568.5337     -38074.223      25.679673      1075284.4    
    431500   302.62834     -47669.792      1544.908      -38107.218      1.6044164      1075074.6    
    431600   294.40462     -47638.395      1596.7966     -38241.807     -17.540055      1075007.4    
    431700   295.65311     -47727.781      1530.1758     -38364.737     -10.579379      1073284.3    
    431800   300.67335     -47825.181      1532.5483     -38326.761      14.972251      1071392.6    
    431900   301.61962     -47753.375      1565.8143     -38196.619      25.519808      1072676.4    
    432000   299.24595     -47614.727      1596.8816     -38089.791     -9.730577       1076996.2    
    432100   302.66267     -47623.177      1544.081      -38060.521     -70.274296      1080373      
    432200   301.3863      -47561.069      1554.0568     -38022.252     -16.04983       1078716.6    
    432300   302.8012      -47625.387      1583.1305     -38020.011      24.311225      1075884.3    
    432400   300.67157     -47631.679      1532.4146     -38133.44       19.901835      1074886.5    
    432500   298.93869     -47675.271      1531.8543     -38223.502     -7.1541564      1076635.4    
    432600   298.69306     -47612.494      1550.4208     -38148.667     -24.061548      1077641.7    
    432700   299.31195     -47535.161      1559.8684     -38045.49       39.56632       1077021      
    432800   301.63715     -47540.063      1525.942      -38022.715      50.362717      1077450.4    
    432900   300.99262     -47556.851      1545.3602     -38037.161     -25.308902      1079104.1    
    433000   297.01521     -47466.758      1549.6423     -38048.161      9.5641336      1079374      
    433100   299.70883     -47468.561      1512.0672     -38016.176      21.574886      1078084.5    
    433200   304.70798     -47650.802      1590.782      -37987.258     -15.156375      1076506.3    
    433300   300.37508     -47567.89       1575.1633     -38034.758      3.8415735      1076932.3    
    433400   299.73397     -47641.699      1542.5766     -38158.138     -17.638172      1077562.4    
    433500   297.02661     -47667.746      1578.6878     -38219.802      7.7456812      1076008.9    
    433600   297.64249     -47623.635      1605.2863     -38132.775      31.477068      1073964.3    
    433700   304.74428     -47645.753      1600.7964     -37971.232      20.796135      1074713.1    
    433800   300.37641     -47468.107      1509.6661     -38000.436     -9.7466053      1078358.9    
    433900   295.6438      -47403.611      1557.1929     -38013.797     -5.502058       1079818.6    
    434000   300.57624     -47482.674      1552.8179     -37966.557      23.435332      1077189.2    
    434100   305.5299      -47587.545      1579.6814     -37913.326      53.695473      1074864.9    
    434200   303.85127     -47673.402      1582.3409     -38040.995     -13.84381       1076434.1    
    434300   294.40261     -47547.027      1580.8038     -38166.486     -41.357863      1077491.2    
    434400   298.57885     -47602.738      1563.8032     -38128.554      3.9579966      1075276.4    
    434500   304.47141     -47669.427      1566.3966     -38036.536      25.566355      1073459      
    434600   301.91741     -47731.748      1615.4028     -38117.515     -42.972018      1074765.7    
    434700   293.71724     -47668.712      1618.7109     -38268.421     -49.597321      1075952.2    
    434800   295.76402     -47652.284      1584.8077     -38231.67       14.878674      1073997.7    
    434900   301.05967     -47735.373      1584.1353     -38175.131      22.735299      1072582.1    
    435000   301.0047      -47725.719      1570.374      -38180.695      2.3697803      1073166.2    
    435100   298.29123     -47641.32       1538.6795     -38199.879     -4.7603996      1075503.9    
    435200   301.44844     -47604.954      1595.1931     -38023.355     -39.946886      1078050.1    
    435300   299.37156     -47440.471      1579.3968     -37929.691     -0.13813434     1078623.7    
    435400   302.91833     -47509.994      1528.8418     -37955.804     -34.92099       1078762.6    
    435500   300.13897     -47547.303      1542.6629     -38052.927     -18.326866      1076861.3    
    435600   300.29795     -47659.851      1513.3906     -38190.535      44.712126      1073357.6    
    435700   299.09974     -47704.742      1539.8107     -38240.751      46.211795      1072181.6    
    435800   295.60394     -47642.061      1579.9857     -38230.51       16.969354      1073367.5    
    435900   298.1864      -47645.161      1571.2055     -38173.972      5.9721755      1074760.7    
    436000   302.30819     -47622.361      1500.4694     -38112.708     -9.0759317      1075743.5    
    436100   299.23984     -47550.176      1550.2796     -38072.003      22.164198      1075322.1    
    436200   300.76226     -47579.791      1545.3842     -38066.18       11.959203      1075778.4    
    436300   295.52688     -47594.449      1581.0658     -38183.859     -8.8078361      1076239.8    
    436400   294.83335     -47732.531      1621.8067     -38299.575     -12.101104      1074628.7    
    436500   301.24342     -47789.394      1562.4813     -38245.939      1.1321828      1071732.6    
    436600   298.7746      -47659.812      1584.2702     -38159.975      35.43394       1071870.7    
    436700   298.13761     -47529.804      1541.5256     -38089.587      32.59306       1074941.6    
    436800   300.43146     -47464.035      1571.1173     -37933.455     -26.177377      1077855.7    
    436900   300.40092     -47393.036      1608.0123     -37826.37      -3.0346963      1078545.2    
    437000   305.79307     -47537.205      1558.8324     -37876.862     -34.221202      1077882.7    
    437100   300.1488      -47507.574      1566.1598     -37989.44       11.057056      1076393.5    
    437200   302.1177      -47632.809      1552.31       -38076.362     -7.3741283      1074412.7    
    437300   298.87604     -47632.643      1587.392      -38126.996      30.389235      1073353.1    
    437400   300.19735     -47687.234      1586.5684     -38147.405     -22.807233      1075329.3    
    437500   296.38188     -47558.426      1572.205      -38134.045     -16.601716      1077686.6    
    437600   299.02812     -47442.969      1555.7999     -37964.886     -24.16312       1077984.1    
    437700   301.10401     -47485.601      1604.7502     -37903.57       38.811269      1076534.4    
    437800   299.87886     -47410.636      1513.5026     -37952.311      34.669295      1077276.1    
    437900   298.70511     -47520          1518.6856     -38087.589     -40.035067      1078910      
    438000   298.65516     -47607.854      1568.4744     -38126.977     -5.9805075      1076938      
    438100   302.82449     -47687.127      1540.9264     -38123.339      21.116254      1073894.7    
    438200   299.03665     -47735.41       1551.4249     -38261.475      54.421692      1072885.4    
    438300   295.32142     -47834.807      1600.5317     -38410.195     -32.20341       1073666.2    
    438400   296.90233     -47767.646      1597.0568     -38304.625      8.2430745      1072541.3    
    438500   299.68594     -47663.736      1552.3783     -38171.646      72.24082       1072903.6    
    438600   302.50661     -47682.089      1543.6372     -38124.011     -46.309123      1076303.6    
    438700   300.8835      -47595.817      1555.2964     -38069.082     -46.273155      1077550.9    
    438800   304.75143     -47565.692      1566.3624     -37925.415      30.356917      1075940      
    438900   299.94853     -47479.159      1607.2322     -37925.258      12.55211       1076624.3    
    439000   298.23808     -47543.207      1518.9888     -38122.866     -47.138868      1077704.9    
    439100   297.62753     -47590.283      1561.2374     -38143.869      4.6443336      1075117      
    439200   301.88655     -47683.096      1584.7358     -38100.347      50.93051       1071903.1    
    439300   303.78592     -47664.904      1552.5484     -38064.022      12.724193      1073233.8    
    439400   298.29313     -47510.163      1544.598      -38062.754      9.5133356      1076058.2    
    439500   301.13993     -47602.784      1547.4015     -38077.15      -38.517904      1076299.6    
    439600   301.82087     -47640.73       1589.1779     -38055.279     -10.843097      1074749.7    
    439700   302.46145     -47654.59       1587.1984     -38054.148      1.0948763      1073957.5    
    439800   300.79553     -47612.847      1563.3518     -38080.387      13.553823      1074791.5    
    439900   298.29441     -47589.496      1553.1407     -38133.51      -18.284337      1076156.3    
    440000   296.53104     -47575.926      1579.2391     -38140.559     -2.0435132      1074747.4    
    440100   298.89915     -47575.857      1609.3523     -38047.638      74.041217      1073171.3    
    440200   299.9964      -47492.46       1566.3084     -37978.215      32.212437      1075607.4    
    440300   300.4716      -47496.234      1540.2599     -37995.448     -47.126269      1079078.1    
    440400   300.81373     -47544.106      1598.518      -37975.997     -41.231583      1079638.5    
    440500   303.29666     -47427.466      1531.1432     -37860.952     -5.0962186      1077893      
    440600   305.77655     -47524.297      1586.5605     -37836.663      29.327745      1076214.5    
    440700   301.39178     -47521.64       1524.0315     -38012.703      9.3593302      1076654.8    
    440800   299.75267     -47556.457      1547.2775     -38067.7       -13.217816      1077731.1    
    440900   298.59083     -47507.329      1534.7083     -38061.923      12.415633      1077071.9    
    441000   299.08839     -47499.755      1577.1763     -37998.699      7.7273574      1076312      
    441100   302.86319     -47513.348      1569.2119     -37920.248     -3.694962       1077167.2    
    441200   303.33174     -47528.426      1565.7941     -37926.33      -37.945904      1079043.8    
    441300   300.59476     -47547.069      1538.9335     -38044.346     -41.626233      1079713.4    
    441400   296.9858      -47557.807      1551.262      -38138.37       7.4575598      1077382.7    
    441500   298.77536     -47679.892      1598.8099     -38165.495      25.27377       1073879.2    
    441600   302.43752     -47660.919      1609.9429     -38038.366      85.376315      1072517.5    
    441700   304.28663     -47621.983      1605.5667     -37954.817      20.159538      1075940.7    
    441800   299.08241     -47511.304      1551.2287     -38036.354     -75.68833       1081099.9    
    441900   299.23057     -47579.968      1544.1153     -38108.205     -42.965452      1079991.6    
    442000   300.12856     -47750.453      1596.1743     -38202.841      23.259555      1074196.1    
    442100   300.51438     -47871.411      1587.6611     -38322.091      33.112444      1071564      
    442200   294.18903     -47673.237      1508.4211     -38370.736      45.38931       1072514.4    
    442300   299.27585     -47723.976      1562.209      -38232.92      -15.63677       1073779.9    
    442400   299.60065     -47653.621      1565.3542     -38150.815      31.496933      1075001.7    
    442500   297.73171     -47581.815      1559.6579     -38134.22      -6.3840311      1076578.8    
    442600   300.94939     -47676.25       1590.7626     -38112.303     -42.554633      1076431      
    442700   299.77267     -47610.452      1615.95       -38052.493      39.115221      1075226.4    
    442800   304.14406     -47616.257      1616.0706     -37942.364      3.9363486      1075800.5    
    442900   300.16499     -47473.057      1614.0616     -37906.592      5.3473797      1078809.4    
    443000   297.83269     -47384.905      1534.3672     -37959.925     -39.21689       1080662.7    
    443100   298.7437      -47568.17       1581.3494     -38072.073     -11.185056      1078649.7    
    443200   298.62108     -47651.22       1547.4272     -38192.294      19.529855      1075650.2    
    443300   298.80995     -47703          1542.9754     -38243.521      11.946121      1074233.3    
    443400   300.9088      -47766.351      1525.3786     -38268.863     -4.8974429      1074202.6    
    443500   300.30231     -47795.308      1619.7189     -38219.548     -17.476546      1074145.5    
    443600   300.97017     -47668.12       1557.3873     -38136.998     -3.0887067      1074228.7    
    443700   299.11468     -47725.772      1641.9488     -38159.247     -16.990376      1074640.7    
    443800   298.01699     -47720.11       1568.2613     -38256.354     -12.746682      1074261      
    443900   297.98185     -47798.313      1566.3693     -38337.379     -4.1000986      1073330.1    
    444000   294.22029     -47768.092      1538.9397     -38434.245      34.376595      1072606.6    
    444100   296.59243     -47837.146      1500.7377     -38478.654      26.282522      1072727.7    
    444200   300.05891     -47809.846      1529.7507     -38330.502      30.916924      1072435.7    
    444300   299.64176     -47703.363      1558.9579     -38205.864      22.576327      1073762.4    
    444400   296.99513     -47581.164      1574.8419     -38137.899     -8.3362865      1076960.6    
    444500   298.35915     -47468.641      1528.6575     -38035.424     -7.1158557      1078794      
    444600   300.79663     -47415.987      1497.1378     -37949.712      26.479075      1079045.7    
    444700   303.95436     -47507.492      1500.5882     -37954.107     -25.339913      1079436.3    
    444800   299.93827     -47488.948      1493.1397     -38049.412     -6.7191309      1078568.8    
    444900   295.65775     -47634.06       1552.6249     -38248.444     -5.6862453      1076476.9    
    445000   299.48061     -47766.464      1640.4377     -38191.755     -4.7954026      1073242.3    
    445100   304.27734     -47810.938      1591.5569     -38158.028      40.331144      1070189.8    
    445200   299.41461     -47770.565      1567.4145     -38270.627      48.634566      1071712.3    
    445300   295.88366     -47758.998      1554.761      -38365.261     -60.205204      1075671.9    
    445400   297.72785     -47679.65       1527.7806     -38264.035     -73.670926      1076431      
    445500   300.47013     -47693.843      1566.2746     -38167.081      37.481543      1072730.5    
    445600   302.99525     -47678.591      1552.3255     -38098.879      59.884519      1071001.8    
    445700   303.86269     -47675.921      1514.7034     -38110.849     -17.423296      1073097.5    
    445800   300.59497     -47648.597      1477.2457     -38207.556     -69.64045       1075938.8    
    445900   292.69921     -47608.663      1565.595      -38288.459     -8.1296649      1073860      
    446000   303.00949     -47766.41       1547.6281     -38191.019      42.859854      1070056.8    
    446100   304.80905     -47724.392      1536.2595     -38112.692      45.250452      1070962      
    446200   299.31307     -47614.827      1472.6445     -38212.35      -13.092938      1075312.4    
    446300   294.71602     -47644.236      1505.7485     -38330.447     -30.437022      1076099.7    
    446400   300.67023     -47803.959      1600.3848     -38237.785      3.6089995      1072471.7    
    446500   301.02821     -47752.057      1598.3366     -38178.447      72.92595       1070722      
    446600   300.20109     -47690.059      1530.7151     -38205.984     -1.9000826      1073498.2    
    446700   300.39454     -47733.274      1596.9936     -38177.796     -53.460679      1075838.8    
    446800   300.55377     -47564.996      1536.3662     -38065.927     -28.288528      1076594      
    446900   303.22058     -47524.382      1544.7431     -37946.283      18.924146      1076260.1    
    447000   302.32786     -47533.151      1526.0118     -37997.434      21.772749      1075745.4    
    447100   304.63903     -47723.445      1574.8401     -38077.669     -32.598139      1075390      
    447200   301.4405      -47673.618      1540.9938     -38146.429     -12.266008      1074639.9    
    447300   300.13362     -47747.117      1579.2111     -38216.334     -20.982363      1074253.9    
    447400   298.60477     -47744.078      1566.3475     -38266.663     -18.836505      1073395.8    
    447500   297.88073     -47729.85       1531.0773     -38306.888      28.690201      1072181.8    
    447600   297.48605     -47654.986      1547.0431     -38226.514      61.053076      1072186      
    447700   299.75245     -47615.879      1593.6097     -38080.796      25.206023      1074333.3    
    447800   300.0058      -47553.103      1579.0399     -38025.878     -29.815185      1077703.2    
    447900   304.0244      -47595.574      1545.6499     -37995.272     -26.20527       1078179.7    
    448000   300.50868     -47546.105      1624.2764     -37960.32      -25.453835      1076176.7    
    448100   305.1458      -47555.571      1547.2567     -37923.952      48.969912      1074100.5    
    448200   298.727       -47511.267      1569.9274     -38027.034      19.226236      1075133.4    
    448300   295.15338     -47492.526      1513.4729     -38159.425      28.486127      1075497.3    
    448400   296.74631     -47571.927      1580.8083     -38129.288      8.1454203      1074223.6    
    448500   298.16007     -47511.531      1604.0992     -38008.146      61.873659      1073849.6    
    448600   301.51292     -47515.985      1541.7221     -37986.149      44.041497      1074921.2    
    448700   302.85585     -47569.804      1527.8419     -38018.269     -46.266921      1077333      
    448800   299.52829     -47473.917      1505.097      -38033.285     -31.805834      1077042.8    
    448900   304.3548      -47580.147      1510.4812     -38006.26      -3.6213386      1074965.9    
    449000   302.51682     -47637.966      1548.9653     -38074.289     -5.5848826      1074328.3    
    449100   298.87271     -47638.443      1566.7704     -38153.507     -33.125578      1074305.1    
    449200   301.68419     -47634.304      1480.9027     -38160.749      20.246687      1073736.2    
    449300   299.69972     -47645.554      1585.1642     -38120.313      1.0374627      1074810.6    
    449400   300.87877     -47580.65       1558.7556     -38050.581      34.45847       1076182.3    
    449500   299.99422     -47473.458      1562.1028     -37963.476     -4.7603204      1079099.3    
    449600   299.37964     -47343.112      1562.7493     -37848.766     -25.927356      1080763.7    
    449700   304.56165     -47391.992      1614.7186     -37708.388      5.3335026      1079934.1    
    449800   303.80069     -47357.568      1570.4453     -37738.397      21.286455      1080299.3    
    449900   300.31192     -47386.664      1595.5239     -37834.845     -16.339114      1080983.1    
    450000   298.52195     -47368.506      1545.545      -37914.088     -2.1251889      1079631.1    
    450100   302.18656     -47571.629      1548.1674     -38017.501     -1.3661531      1076820.2    
    450200   297.56913     -47632.249      1618.1413     -38130.478      21.183577      1074039.2    
    450300   301.34164     -47734.837      1553.9107     -38197.35       29.076765      1072720.4    
    450400   297.35355     -47656.065      1548.9839     -38229.162      0.20717432     1074411.9    
    450500   298.69118     -47713.053      1608.5398     -38191.157     -69.098431      1076077.8    
    450600   295.41382     -47511.467      1572.4349     -38112.504      30.588709      1075311.8    
    450700   301.76175     -47665.311      1583.2011     -38087.403      23.435234      1074339.2    
    450800   299.44423     -47628.932      1556.8942     -38138.73       15.347193      1075184.5    
    450900   296.94118     -47620.16       1535.1245     -38218.042     -58.973287      1076201.4    
    451000   299.82229     -47610.538      1516.5436     -38150.671      6.0542154      1074466.2    
    451100   304.58712     -47627.755      1568.9833     -37989.211      25.444752      1073183.1    
    451200   300.80553     -47542.026      1533.4411     -38039.212      12.10745       1075429.1    
    451300   296.9646      -47528.088      1569.6278     -38090.846     -40.465622      1077921      
    451400   299.08708     -47585.217      1589.8903     -38071.481     -19.318257      1075632.3    
    451500   304.43061     -47606.892      1501.9968     -38039.481      51.125266      1072931.4    
    451600   298.27779     -47570.087      1577.902      -38089.78       48.129197      1074499.5    
    451700   297.27193     -47557.151      1537.0485     -38144.347     -24.283785      1078031.4    
    451800   299.25893     -47550.264      1524.2485     -38097.617     -50.125716      1077837.6    
    451900   304.95698     -47635.27       1579.3327     -37976.578      47.764259      1073727.4    
    452000   301.54222     -47587.323      1576.3463     -38022.086      48.250293      1072134.7    
    452100   299.79064     -47699.616      1584.4226     -38172.708      1.9627231      1073010.2    
    452200   302.88415     -47750.06       1537.5224     -38188.095     -24.461353      1073145.5    
    452300   295.60315     -47595.135      1587.5681     -38176.022      55.65763       1073046.7    
    452400   296.21534     -47503.692      1547.9203     -38108.008      18.264874      1074856.2    
    452500   302.47483     -47459.042      1501.6616     -37943.782      2.1948062      1076164.1    
    452600   302.45874     -47477.408      1567.4009     -37896.834     -14.9593        1077162.2    
    452700   303.13284     -47583.529      1572.0146     -37980.482     -18.41902       1077088.2    
    452800   297.00567     -47513.344      1587.772      -38056.87       2.739246       1076383      
    452900   305.19805     -47691.374      1521.5234     -38084.104     -7.5187529      1075278.3    
    453000   301.94778     -47641.457      1533.8545     -38107.967      4.1989938      1075793.5    
    453100   299.59437     -47676.267      1528.7564     -38210.226     -22.760736      1076589.7    
    453200   294.46058     -47678.957      1524.509      -38353.174     -44.041296      1075796.3    
    453300   299.22776     -47699.606      1522.7143     -38249.319      56.298318      1072708.9    
    453400   304.12679     -47753.539      1565.5594     -38130.615     -12.96506       1072717.1    
    453500   297.36535     -47595.496      1585.7736     -38131.492      4.7758137      1075313.9    
    453600   296.94094     -47465.304      1519.4419     -38078.875     -13.773911      1077989.8    
    453700   300.75215     -47503.106      1601.2944     -37933.853     -11.18485       1077059.7    
    453800   302.88885     -47563.099      1621.7333     -37916.798      22.578922      1074288.2    
    453900   296.77587     -47414.394      1553.0348     -37998.746      90.840082      1074527.5    
    454000   296.17024     -47512.6        1590.4919     -38075.54      -1.0140512      1077815.6    
    454100   298.39045     -47514.296      1508.9314     -38099.976     -33.282138      1078420.2    
    454200   300.77542     -47558.131      1578.0661     -38011.49       10.547602      1075601.7    
    454300   304.99093     -47531.293      1586.4412     -37864.593      54.818228      1074069.5    
    454400   301.32651     -47513.393      1547.1084     -37983.109      6.7914262      1076682.7    
    454500   298.1706      -47516.723      1570.3388     -38046.819     -60.869841      1078498.2    
    454600   300.90781     -47563.005      1580.0584     -38010.864     -31.021169      1077078      
    454700   302.26087     -47581.97       1585.1845     -37988.855      44.425019      1073685.8    
    454800   301.43525     -47721.154      1611.2883     -38123.809     -17.146657      1073372.2    
    454900   299.9916      -47742.68       1567.7595     -38227.111     -27.081012      1073998.4    
    455000   296.7402      -47655.461      1630.7929     -38163         -9.3693654      1074435.2    
    455100   300.57344     -47589.25       1562.1218     -38063.904     -12.15528       1074969.8    
    455200   299.53006     -47480.438      1530.0176     -38014.839      12.565939      1075696.9    
    455300   303.10542     -47525.778      1520.9034     -37974.57      -18.321143      1076299.7    
    455400   299.04162     -47501.92       1566.4664     -38012.813      0.62951461     1076028.2    
    455500   301.67814     -47610.205      1560.5673     -38057.146     -7.179531       1075437      
    455600   297.36973     -47571.397      1581.0893     -38111.961      37.013334      1074893.3    
    455700   299.95197     -47669.896      1563.7428     -38159.393      8.5271183      1075459.5    
    455800   297.94406     -47620.891      1530.5773     -38196.75      -22.414089      1075908      
    455900   298.84942     -47637.872      1551.029      -38169.294      11.400245      1074632.2    
    456000   302.99182     -47722.993      1605.1455     -38090.552     -0.36282546     1074133.6    
    456100   300.42581     -47641.397      1587.6511     -38094.433      3.2139998      1075438.9    
    456200   294.47872     -47586.392      1602.7434     -38181.895     -50.656006      1077481.5    
    456300   297.748       -47641.445      1549.1311     -38203.945      3.8262562      1076142.4    
    456400   299.16225     -47688.819      1599.5679     -38163.414      13.020114      1073002.7    
    456500   304.55571     -47743.708      1577.3104     -38097.67       35.034716      1072385.9    
    456600   301.9812      -47656.105      1561.6159     -38093.968     -51.37448       1076523.8    
    456700   297.42843     -47502.907      1558.1194     -38064.885     -9.0787578      1078393.1    
    456800   302.60393     -47527.522      1579.6608     -37930.842      9.5905817      1077026.5    
    456900   305.53934     -47600.211      1604.421      -37901.002     -8.9651473      1076083.5    
    457000   302.11828     -47657.265      1607.1905     -38045.922     -69.700728      1077411.8    
    457100   295.54551     -47537.706      1585.7779     -38121.911     -39.639031      1077329.4    
    457200   298.52767     -47571.947      1601.3611     -38061.561      21.562402      1074824.1    
    457300   301.55024     -47681.808      1639.4161     -38053.289      19.832514      1072815.4    
    457400   299.24104     -47613.715      1574.4266     -38111.364     -13.916117      1074457.1    
    457500   295.05416     -47624.924      1569.2012     -38238.723     -50.174723      1076776.1    
    457600   297.43593     -47748.104      1558.4409     -38309.563     -29.269668      1074352      
    457700   300.83825     -47767.703      1601.7519     -38195.711      60.700351      1069929.3    
    457800   302.44428     -47738.794      1606.693      -38119.312      90.537808      1069370.2    
    457900   295.58322     -47625.29       1560.374      -38233.9       -6.8687141      1074608      
    458000   295.75732     -47592.544      1497.1264     -38259.789     -60.641517      1077382.7    
    458100   297.11819     -47606.536      1538.7828     -38196.07       21.228616      1074857      
    458200   302.90817     -47744.42       1573.2415     -38146.099      12.500817      1072417.4    
    458300   301.42144     -47735.443      1538.2006     -38211.551      22.246117      1072167.5    
    458400   294.34792     -47683.071      1568.0937     -38316.688     -11.623905      1074480.6    
    458500   301.35339     -47778.956      1549.2352     -38245.833     -54.854594      1075163.8    
    458600   300.12037     -47628.832      1581.2211     -38096.39       45.583543      1073513.2    
    458700   300.93888     -47715.925      1609.6071     -38133.411      17.740008      1073138.5    
    458800   297.43        -47709.5        1618.2489     -38211.307     -11.325911      1073906.7    
    458900   295.62887     -47603.66       1569.2857     -38202.149      3.5231377      1074658.9    
    459000   299.87012     -47525.771      1563.9741     -38017.205      35.7244        1074935.3    
    459100   303.47172     -47614.253      1580.5886     -37993.655     -9.8361989      1075561.4    
    459200   297.29806     -47560.96       1621.5969     -38062.915     -14.18883       1076201      
    459300   298.43689     -47602.597      1568.1706     -38127.807      23.08624       1074900      
    459400   301.25311     -47708.362      1505.7118     -38221.419      28.728463      1072117.9    
    459500   296.39665     -47739.343      1493.6453     -38393.131      36.428686      1071570.9    
    459600   296.67233     -47744.568      1540.6668     -38344.031     -38.282034      1072995.7    
    459700   299.05968     -47687.639      1550.3678     -38214.152      21.861369      1073285.3    
    459800   298.36049     -47623.458      1577.724      -38141.138     -6.3561775      1074084.1    
    459900   303.03535     -47635.036      1507.0015     -38099.586      1.3479252      1074424.4    
    460000   297.41335     -47558.705      1558.3148     -38120.888      1.9735209      1074384.4    
    460100   298.71822     -47767.423      1571.4671     -38281.883      9.496467       1072483.5    
    460200   297.55662     -47812.196      1576.1055     -38352.792      34.527902      1070610.3    
    460300   299.34896     -47784.394      1570.0215     -38283.589      17.821691      1070434.3    
    460400   299.03424     -47656.738      1583.0574     -38151.235      31.367269      1071786.5    
    460500   300.37104     -47568.193      1580.6442     -38029.687     -14.665646      1075648.7    
    460600   299.23684     -47495.697      1561.3981     -38006.486     -78.069572      1079210.6    
    460700   299.7938      -47438.598      1575.5506     -37920.479     -27.574969      1079383.9    
    460800   298.46628     -47353.818      1607.6818     -37838.738      46.00154       1077683.4    
    460900   302.1258      -47455.499      1563.3701     -37887.777      48.383902      1076562.3    
    461000   300.66062     -47598.714      1550.9573     -38082.222     -32.20613       1077066.4    
    461100   299.07162     -47554.069      1514.749      -38115.884      5.4805305      1077031      
    461200   300.02953     -47539.794      1525.2209     -38065.759     -21.218525      1078144.8    
    461300   302.1569      -47508.871      1558.9943     -37944.701     -4.7189823      1078114.4    
    461400   302.06628     -47450.183      1565.4007     -37882.008      37.279752      1076659.4    
    461500   301.11195     -47547.715      1641.3644     -37928.859     -33.303638      1076802.2    
    461600   294.7315      -47554.334      1587.3224     -38158.56      -24.425681      1077798.8    
    461700   301.39103     -47649.777      1526.4454     -38138.447      15.312438      1076239.8    
    461800   301.89979     -47615.262      1576.264      -38040.634      48.340335      1074858.9    
    461900   301.78384     -47575.441      1559.0655     -38021.084      15.806063      1076831.6    
    462000   299.62384     -47544.885      1491.8901     -38114.929     -72.731988      1080466.3    
    462100   295.45042     -47549.454      1558.61       -38163.347     -20.156167      1079733      
    462200   302.61043     -47592.526      1584.2051     -37991.129      52.557835      1075395.4    
    462300   301.31758     -47509.143      1593.8684     -37932.336      34.334566      1075558      
    462400   301.03043     -47534.349      1562.8902     -37996.127     -69.819948      1079637.7    
    462500   298.30561     -47497.607      1538.482      -38055.984     -48.603471      1080946.2    
    462600   297.96533     -47561.32       1597.0238     -38070.17      -12.247699      1077630.5    
    462700   301.87747     -47592.746      1601.783      -37993.191      76.739306      1073462.8    
    462800   299.16931     -47553.201      1613.7815     -38013.396      68.331361      1074189.4    
    462900   299.93178     -47628.606      1567.2396     -38115.142     -62.756214      1077846      
    463000   297.61397     -47587.023      1586.9683     -38115.237     -59.481018      1078379.2    
    463100   306.44011     -47636.078      1562.4705     -37954.955      3.7196294      1075169.6    
    463200   305.46514     -47656.054      1604.2193     -37959.012      44.619939      1073631.8    
    463300   296.18852     -47495.675      1592.3481     -38056.275      42.148917      1076622.7    
    463400   297.9618      -47515.627      1586.3063     -38035.288     -94.212368      1080276.2    
    463500   299.3453      -47463.782      1571.2365     -37961.859      17.619363      1078487.1    
    463600   305.22055     -47557.608      1576.7363     -37894.53       31.244355      1075796.6    
    463700   301.25794     -47558.195      1535.0962     -38041.74       6.5458555      1075983.3    
    463800   299.9485      -47659.772      1545.6826     -38167.421     -51.114818      1075948.5    
    463900   298.53221     -47627.796      1567.2073     -38151.444      40.507045      1073150.8    
    464000   300.86148     -47711.48       1566.4285     -38174.196      39.593793      1071533.5    
    464100   297.99398     -47789.836      1583.7183     -38311.232     -14.668284      1072508.1    
    464200   296.60651     -47748.045      1512.4192     -38377.5        0.27437912     1072924.1    
    464300   298.68648     -47813.886      1602.988      -38297.666      3.0209528      1071938.3    
    464400   300.67733     -47785.737      1586.6307     -38233.13       27.369541      1072120.2    
    464500   301.52984     -47813.795      1603.6339     -38221.598     -45.649414      1074066.5    
    464600   296.12009     -47585.055      1590.1632     -38149.652     -3.2426802      1074971.8    
    464700   299.2572      -47523.87       1554.6937     -38040.824      61.112783      1075320.2    
    464800   304.08584     -47654.166      1575.3956     -38022.49      -30.66434       1076557.7    
    464900   302.37964     -47620.091      1573.6481     -38035.367     -39.036361      1077957.1    
    465000   299.01804     -47495.923      1548.1921     -38025.714     -10.350855      1077925.3    
    465100   301.9253      -47527.248      1532.6056     -37995.603     -6.2037695      1076892.6    
    465200   301.6656      -47554.01       1526.589      -38035.262      23.57078       1075766.7    
    465300   298.98321     -47640.203      1530.2315     -38188.878      18.187003      1075025.4    
    465400   297.04131     -47681.637      1567.9182     -38244.073      7.2887883      1074315.5    
    465500   302.02269     -47778.873      1575.1532     -38202.1       -9.0725414      1073066.8    
    465600   302.10737     -47632.545      1583.1704     -38045.511      25.426789      1073314.1    
    465700   302.6303      -47547.47       1606.3317     -37923.421      36.733521      1075944.7    
    465800   300.98198     -47536.071      1586.7179     -37975.305     -72.709687      1079325.9    
    465900   300.09449     -47549.925      1553.4451     -38045.945     -37.849086      1080042.7    
    466000   299.87961     -47606.891      1520.2511     -38141.797     -31.548338      1078205.2    
    466100   294.12843     -47648.908      1585.8317     -38270.602      43.898965      1074431.3    
    466200   298.63848     -47753.019      1555.2607     -38285.798      53.90248       1072226.3    
    466300   299.05824     -47779.19       1594.3725     -38261.736     -3.6866132      1073670.4    
    466400   300.46226     -47652.42       1564.2666     -38127.874     -27.587147      1077209.4    
    466500   297.12237     -47410.17       1555.845      -37982.532      3.9302692      1079300.9    
    466600   306.47845     -47538.842      1505.2206     -37913.953     -50.068428      1079486.9    
    466700   305.50749     -47558.666      1521.7974     -37942.924     -12.304904      1078428.8    
    466800   299.59992     -47564.001      1557.2284     -38069.341     -3.5829378      1077594.6    
    466900   294.13036     -47579.359      1566.1529     -38220.681     -3.7934365      1076280.4    
    467000   298.99202     -47715.683      1543.507      -38250.849      35.120457      1073423.3    
    467100   300.08301     -47764.977      1579.3293     -38235.416      45.054383      1073259.7    
    467200   299.82712     -47747.341      1581.0094     -38222.88      -37.672999      1076326.1    
    467300   300.95581     -47641.947      1596.5761     -38072.016     -28.910094      1077831.2    
    467400   300.88083     -47495.422      1576.6685     -37947.385     -27.617966      1078538.7    
    467500   302.8597      -47458.833      1514.8432     -37920.195      12.855054      1078652      
    467600   301.57973     -47455.797      1521.7829     -37944.13       34.613029      1078889.8    
    467700   295.44928     -47491.596      1572.0868     -38092.041     -28.018961      1079195.4    
    467800   300.14672     -47634.398      1553.7563     -38128.722     -17.001684      1076580.7    
    467900   300.17331     -47610.602      1582.2329     -38075.746      44.119288      1074262.3    
    468000   301.72649     -47622.739      1556.7929     -38072.174      46.491584      1074979.2    
    468100   298.19265     -47524.185      1529.7216     -38094.314     -25.819761      1078238.2    
    468200   296.3818      -47467.558      1583.4998     -38031.885     -35.055408      1079743.6    
    468300   303.04771     -47495.441      1565.2094     -37901.455      17.79524       1078055.6    
    468400   304.27217     -47571.625      1583.9223     -37926.486      38.289689      1076971.3    
    468500   298.64703     -47511.863      1581.5468     -38018.129      14.370116      1078164.2    
    468600   299.26132     -47551.885      1560.4632     -38062.96      -18.568593      1078483.6    
    468700   298.27867     -47562.361      1640.1264     -38019.806      10.7693        1076652.4    
    468800   305.10129     -47482.819      1498.801      -37900.835      24.73078       1075873.1    
    468900   303.71136     -47382.959      1525.698      -37810.902      9.7417552      1077739.4    
    469000   302.95879     -47408.144      1561.4751     -37820.248     -38.206661      1080294.4    
    469100   298.6201      -47427.98       1580.7749     -37935.732     -63.724544      1080178.5    
    469200   300.65034     -47566.49       1565.3089     -38035.919      14.837595      1075522.1    
    469300   302.98643     -47740.856      1572.8379     -38140.866      33.75108       1072482      
    469400   298.214       -47697.345      1561.6156     -38235.015      16.603344      1074183.9    
    469500   295.0551      -47600.725      1586.9937     -38196.707     -18.598164      1076879.8    
    469600   298.06814     -47553.744      1550.1118     -38106.782     -12.362047      1077509.1    
    469700   301.59501     -47570.662      1550.5532     -38029.82       15.500117      1076188.1    
    469800   299.3468      -47506.284      1570.3374     -38005.22       13.496152      1075536.5    
    469900   297.45546     -47550.626      1580.7477     -38089.26       11.871331      1075964.1    
    470000   297.09766     -47671.2        1572.9277     -38227.134     -20.129187      1076178.5    
    470100   297.90838     -47624.868      1486.7808     -38245.47       4.1180153      1075735.6    
    470200   301.27886     -47561.987      1533.8288     -38046.245      31.828911      1076182.4    
    470300   299.55878     -47468.133      1540.3338     -37991.457     -11.78194       1078688.3    
    470400   301.88195     -47471.57       1490.4799     -37983.199     -46.015243      1079534.4    
    470500   303.71726     -47536.408      1500.4344     -37989.458     -2.3906523      1076444.7    
    470600   298.84068     -47610.919      1560.8208     -38132.78       32.260944      1073178.7    
    470700   298.4         -47675.408      1549.3951     -38220.37       19.597767      1072027.3    
    470800   298.36297     -47631.13       1529.6964     -38196.772      14.663939      1072725.8    
    470900   296.71577     -47536.415      1602.5811     -38072.813     -6.1854037      1074502.6    
    471000   300.46059     -47456.303      1561.437      -37934.632     -25.550219      1075761.8    
    471100   303.74245     -47548.986      1551.0703     -37950.734     -11.665491      1074983.7    
    471200   302.51464     -47655.369      1586.831      -38053.884      16.899122      1073295.6    
    471300   301.71078     -47737.323      1552.5063     -38191.46      -28.476947      1072450.7    
    471400   302.20862     -47841.045      1593.7154     -38240.783     -11.70635       1070847.2    
    471500   299.50922     -47762.16       1596.6456     -38230.485      12.808681      1070155.1    
    471600   299.38386     -47648.487      1557.2673     -38159.512      55.603788      1071917      
    471700   297.27097     -47458.969      1598.5988     -37984.64      -1.8488055      1076358      
    471800   298.48321     -47367.938      1543.7292     -37916.361     -27.274918      1078947.2    
    471900   301.81429     -47413.425      1530.7975     -37886.529      22.117738      1078108.4    
    472000   302.66787     -47548.762      1601.9043     -37928.144     -23.592188      1076543.3    
    472100   299.51362     -47610.522      1559.6284     -38115.747     -18.217111      1075267.5    
    472200   299.33295     -47688.368      1577.9379     -38180.07       28.860522      1072996.1    
    472300   300.71819     -47697.631      1505.2019     -38225.37       59.152558      1071284.1    
    472400   297.97754     -47747.989      1574.8968     -38278.642     -8.3483017      1072738.9    
    472500   299.59157     -47754.717      1506.7141     -38310.792     -23.997181      1074435.2    
    472600   300.3368      -47694.421      1545.9823     -38191.483     -29.396276      1074172.9    
    472700   300.57465     -47584.5        1574.9116     -38046.333      56.76624       1073652.2    
    472800   303.07898     -47636.389      1586.7288     -38020.056     -27.319577      1076493.3    
    472900   298.44025     -47500.933      1553.7641     -38040.46      -42.499354      1079063.9    
    473000   302.79422     -47572.7        1535.7706     -38014.869     -27.055138      1078994.8    
    473100   304.00613     -47531.439      1585.7225     -37891.549      60.432553      1077522.9    
    473200   303.18229     -47457.446      1561.5298     -37863.574     -27.211012      1078632.7    
    473300   299.82327     -47460.322      1519.5331     -37997.44      -46.07559       1079603.8    
    473400   302.35508     -47613.023      1498.0193     -38104.577     -48.243471      1077923      
    473500   298.84656     -47606.599      1586.0193     -38103.107      36.536012      1074736.3    
    473600   298.1685      -47574.655      1561.1417     -38114.004      32.593517      1074553.6    
    473700   300.74439     -47641.12       1559.9509     -38113.415      2.6267046      1076207.9    
    473800   301.62461     -47682.555      1579.2336     -38112.248     -31.222354      1077291.6    
    473900   297.34248     -47558.279      1572.3804     -38108.274      61.068463      1076920.7    
    474000   298.65869     -47586.232      1545.3749     -38128.361      1.7365422      1076346.7    
    474100   299.28214     -47639.579      1558.0069     -38152.559     -5.1567942      1074899.8    
    474200   300.12164     -47696.133      1570.7405     -38174.138      32.298083      1073821.1    
    474300   299.96014     -47746.039      1548.0628     -38251.001     -24.947352      1074469.9    
    474400   299.73491     -47827.823      1545.9413     -38340.874     -67.647049      1074108.7    
    474500   295.85324     -47776.338      1524.6667     -38413.501      54.010341      1071512.5    
    474600   299.09908     -47898.3        1565.1228     -38409.014      29.255638      1070393.2    
    474700   300.01846     -47801.64       1537.2467     -38315.873      26.722222      1072457.2    
    474800   300.82515     -47669.554      1497.3917     -38202.27       11.631259      1075612.8    
    474900   300.85484     -47635.98       1561.5        -38103.8       -60.392496      1078093.5    
    475000   301.05998     -47556.979      1548.7103     -38032.155     -15.006169      1077758.9    
    475100   300.08144     -47573.586      1572.2973     -38051.099      35.155051      1075613.8    
    475200   307.11403     -47776.176      1550.8872     -38088.782     -31.61701       1074674.7    
    475300   298.55024     -47595.791      1537.5183     -38148.65       30.845333      1075480.2    
    475400   297.2192      -47624.515      1560.112      -38190.044     -27.292894      1077276.3    
    475500   298.32573     -47509.582      1511.1538     -38094.754     -4.1717812      1077395.1    
    475600   301.91639     -47508.275      1551.3967     -37958.075      48.930369      1076378.4    
    475700   297.37871     -47393.036      1524.2737     -37990.177      39.716684      1077983      
    475800   298.61595     -47530.086      1571.1487     -38047.573     -68.892458      1080576.4    
    475900   300.97866     -47485.615      1550.761      -37960.894     -5.6060672      1078394.3    
    476000   301.67184     -47451.263      1620.4099     -37838.528      43.067084      1075000.6    
    476100   301.25857     -47520.166      1592.144      -37946.646      19.537866      1074307.7    
    476200   298.14921     -47580.111      1625.5967     -38055.516      3.3063844      1075227.8    
    476300   297.29241     -47576.983      1594.8886     -38105.796     -12.638503      1076140.9    
    476400   299.61865     -47633.306      1556.3773     -38139         -24.968139      1075719.2    
    476500   299.46743     -47651.48       1617.5603     -38099.997     -21.55549       1074548.5    
    476600   304.75835     -47578.294      1533.8141     -37970.382      42.984171      1073582.2    
    476700   301.25638     -47580.274      1583.3876     -38015.568      1.4298431      1075729.5    
    476800   298.62549     -47573.81       1498.8338     -38163.36      -57.918219      1078094      
    476900   296.52864     -47574.02       1556.606      -38161.35       2.0335756      1076206.3    
    477000   303.11244     -47718.071      1570.786      -38116.794      31.877233      1072600.4    
    477100   303.01073     -47689.762      1505.6481     -38156.317      28.01711       1072247.4    
    477200   297.18486     -47728.291      1534.6462     -38320.196     -13.776947      1074253.4    
    477300   296.49207     -47791.225      1528.1971     -38407.933     -57.782895      1074801      
    477400   301.07841     -47776.94       1568.6675     -38231.67       14.029372      1071709.6    
    477500   302.48506     -47804.12       1583.6208     -38206.63       24.412554      1070647.5    
    477600   295.77346     -47591.359      1522.7071     -38232.595      40.4847        1073520.6    
    477700   297.95235     -47645.733      1551.2667     -38200.684     -56.112919      1076637.4    
    477800   302.43843     -47615.351      1555.6402     -38047.076     -25.8081        1075929.5    
    477900   302.76487     -47593.877      1552.4777     -38020.116      55.287545      1073876.9    
    478000   299.31973     -47597.738      1555.47       -38112.259     -6.0570577      1074765.7    
    478100   299.80035     -47625.493      1513.399      -38169.351     -71.931004      1075634.6    
    478200   298.73225     -47629.163      1581.3237     -38133.394      5.1453876      1073472.8    
    478300   304.22015     -47609.009      1584.2405     -37964.93       63.039568      1071036      
    478400   301.70517     -47569.242      1588.9305     -37987.103      5.9977392      1073353.2    
    478500   293.08098     -47431.375      1566.9421     -38099.71      -40.427455      1077679.5    
    478600   295.01572     -47490.441      1577.284      -38097.176     -13.016787      1075744.3    
    478700   307.43456     -47676.871      1528.9924     -38002.879      86.149366      1070750.3    
    478800   303.70747     -47622.014      1596.9052     -37978.853      30.574282      1072554.3    
    478900   298.03851     -47580.646      1559.2171     -38125.364     -73.927584      1078687.9    
    479000   293.33676     -47477.066      1589.479      -38116.087     -63.310699      1079060.3    
    479100   301.86043     -47594.6        1603.0631     -37994.216      24.265512      1073438.4    
    479200   304.72213     -47656.564      1567.6146     -38015.812      69.453139      1070748.9    
    479300   300.13343     -47609.563      1529.9065     -38128.089      10.141062      1073449.6    
    479400   298.09722     -47592.178      1553.4291     -38141.128     -6.2809158      1075457.5    
    479500   301.27087     -47671.931      1588.8368     -38101.392     -38.048977      1074717.8    
    479600   303.47648     -47670.958      1562.6053     -38068.217      29.879231      1073237.4    
    479700   307.45989     -47672.058      1504.6803     -38021.707     -23.648593      1074971.9    
    479800   299.72262     -47568.348      1528.4989     -38099.166     -25.385224      1077053.9    
    479900   295.49542     -47507.199      1530.776      -38147.733     -30.786725      1078282.7    
    480000   302.08434     -47648.994      1601.7746     -38043.966     -21.154175      1075341.1    
    480100   303.57628     -47610.345      1618.3432     -37949.222      43.36011       1073021.2    
    480200   300.61182     -47621.438      1615.1474     -38042.049     -4.016031       1075404.2    
    480300   297.98757     -47582.696      1527.9136     -38160.067     -49.481879      1078231.6    
    480400   295.80491     -47522.938      1552.0885     -38133.96      -23.510728      1077837.9    
    480500   302.8177      -47683.246      1600.4037     -38060.159     -10.771244      1074641.5    
    480600   303.58964     -47685.024      1577.6886     -38064.201      21.302858      1072866.4    
    480700   299.59603     -47712.305      1542.8122     -38232.164      12.532545      1073801.3    
    480800   303.46898     -47777.035      1489.2844     -38247.813     -65.079445      1074860      
    480900   302.19064     -47682.138      1487.7784     -38188.29       20.659922      1073922.8    
    481000   298.40619     -47620.299      1590.9848     -38123.508      28.975049      1073648.1    
    481100   303.00697     -47669.732      1569.9445     -38072.09      -44.709105      1075430.5    
    481200   302.25267     -47486.217      1509.0912     -37969.413      5.1282597      1077489.3    
    481300   301.72303     -47398.227      1557.5262     -37847.02       9.7955812      1078727.6    
    481400   301.31021     -47437.265      1566.6688     -37887.853      0.81391781     1078563.5    
    481500   298.81059     -47468.722      1546.3307     -38005.871     -20.941342      1077370.3    
    481600   303.0126      -47688.07       1580.0429     -38080.181     -18.863755      1074043      
    481700   298.81346     -47638.634      1557.7242     -38164.313      67.80769       1071203.4    
    481800   299.41333     -47823.618      1522.5989     -38368.53      -29.724482      1071359.1    
    481900   296.72849     -47721.774      1525.8999     -38334.515      45.956852      1071656.7    
    482000   295.79826     -47614.28       1559.7912     -38217.776      46.390072      1072958.4    
    482100   298.62751     -47609.768      1572.2529     -38125.845      13.000346      1074757.5    
    482200   298.78368     -47571.635      1589.0563     -38066.771     -21.921391      1075827.4    
    482300   301.24535     -47594.392      1582.8401     -38030.526     -0.010352233    1075179.4    
    482400   301.37576     -47575.895      1616.0706     -37975.344      32.928175      1075202.1    
    482500   304.13084     -47471.849      1572.2483     -37842.128      40.357649      1076738.2    
    482600   302.22028     -47437.832      1569.1485     -37861.829     -35.449994      1079537.2    
    482700   299.3249      -47441.891      1551.0016     -37960.743     -58.378625      1080046.6    
    482800   297.83811     -47511.536      1561.9911     -38058.789      21.693075      1075854      
    482900   301.01634     -47712.739      1551.8811     -38185.899      92.391505      1070751.2    
    483000   298.90383     -47787.851      1553.3757     -38315.485      25.991055      1070940.3    
    483100   293.65467     -47653.616      1572.0966     -38301.597     -1.365388       1073381.2    
    483200   297.82477     -47701.039      1607.6726     -38202.964     -42.006004      1073949.1    
    483300   305.73513     -47702.467      1491.3954     -38111.096      28.394275      1072337.4    
    483400   300.31603     -47606.302      1556.5881     -38093.309      21.310824      1073262.1    
    483500   300.3076      -47559.323      1571.079      -38032.063     -2.8188663      1075572.2    
    483600   301.86703     -47443.473      1564.5148     -37881.462      16.924812      1076707.5    
    483700   303.71589     -47490.04       1548.1498     -37895.412     -19.343586      1076867.5    
    483800   298.81958     -47511.091      1546.8042     -38047.528     -12.853951      1076590.7    
    483900   298.25921     -47549.353      1532.9547     -38114.486      26.261594      1075189.6    
    484000   300.26416     -47627.782      1541.1347     -38131.617      42.034653      1074608      
    484100   296.46378     -47621.36       1587.9498     -38179.065      8.6679612      1075220.5    
    484200   299.097       -47696.839      1561.6295     -38211.101      5.5637467      1075439.6    
    484300   300.29692     -47704.726      1554.4652     -38194.362     -5.7821111      1075415      
    484400   302.77339     -47766.839      1601.1629     -38144.168     -9.3443643      1075208.4    
    484500   298.76223     -47669.22       1604.0633     -38149.917     -13.644017      1075958.6    
    484600   298.44602     -47662.398      1575.5651     -38179.972     -10.819335      1076598.5    
    484700   300.52655     -47666.11       1562.521      -38141.607     -11.607035      1075964.1    
    484800   299.8726      -47541.145      1595.1266     -38001.362      24.970948      1075456.7    
    484900   300.84585     -47546.535      1618.714      -37957.379      26.184593      1076575.9    
    485000   298.23491     -47519.041      1588.672      -38029.1       -32.328492      1078724.4    
    485100   293.8653      -47482.666      1527.6965     -38169.467     -49.990076      1079171.5    
    485200   296.6222      -47718.26       1601.0397     -38258.677     -32.763226      1076431.5    
    485300   302.23843     -47766.155      1536.0283     -38222.791      62.852948      1071520      
    485400   306.16416     -47901.011      1604.0026     -38185.667      34.27733       1069683.3    
    485500   301.83714     -47855.355      1562.7063     -38295.945      13.40602       1072084.9    
    485600   297.48788     -47755.047      1500.5418     -38373.028     -62.757597      1075277.9    
    485700   296.52037     -47660.29       1546.5848     -38257.861      13.236329      1074810.9    
    485800   298.83942     -47625.998      1538.8244     -38169.889      46.284543      1074027.1    
    485900   298.48206     -47596.815      1541.6376     -38147.36       10.602415      1074939.8    
    486000   299.23316     -47576.925      1552.1331     -38097.076      5.0494861      1075654.6    
    486100   297.79997     -47450.245      1591.4259     -37969.074      15.163189      1076198.2    
    486200   305.76257     -47596.059      1601.6029     -37893.754     -6.6219715      1076942.3    
    486300   301.01951     -47532.619      1560.1109     -37997.465     -32.653074      1078227.4    
    486400   295.35467     -47564.2        1553.8312     -38185.408     -11.565713      1076490.3    
    486500   297.62539     -47592.84       1557.0652     -38150.654      22.972854      1073542.8    
    486600   302.11871     -47701.856      1588.4591     -38109.233      45.573285      1072218.8    
    486700   299.14268     -47605.977      1531.5258     -38149.133      11.397834      1073489.1    
    486800   297.88253     -47691.129      1533.6375     -38265.559     -24.683461      1074886.9    
    486900   297.98546     -47740.555      1508.3787     -38337.517      4.3436485      1073488.4    
    487000   301.07336     -47802.113      1619.8136     -38205.83       37.3354        1072080.3    
    487100   301.92271     -47642.671      1548.09       -38095.61       53.980308      1073622.9    
    487200   297.56857     -47548.857      1573.9737     -38091.268     -23.12755       1077816.6    
    487300   300.40598     -47553.238      1542.6778     -38051.772     -46.935254      1079249.2    
    487400   300.57693     -47558.809      1602.8856     -37992.606     -3.2658677      1076762.2    
    487500   301.36593     -47537.679      1573.1488     -37980.31       62.562474      1074205.1    
    487600   302.81293     -47683.365      1616.7435     -38044.066      7.0176739      1074170.4    
    487700   296.18315     -47526.337      1527.4254     -38152.001      28.741535      1075143.9    
    487800   301.11512     -47729.835      1553.3667     -38198.893     -53.787686      1074592.8    
    487900   297.78171     -47641.304      1571.8369     -38180.205      27.768101      1072204.8    
    488000   305.41037     -47692.09       1556.7395     -38043.979      45.856537      1071658.5    
    488100   304.70315     -47592.335      1524.9314     -37994.769      8.6866501      1075222.3    
    488200   299.0217      -47597.513      1565.9182     -38109.481     -90.345689      1079218.9    
    488300   295.05074     -47565.455      1538.1937     -38210.353     -39.578208      1077402.6    
    488400   305.13964     -47716.079      1557.7983     -38074.082      26.825201      1072236.4    
    488500   301.61713     -47610.849      1637.3806     -37982.593      91.743943      1070317.4    
    488600   302.46421     -47593.431      1483.4412     -38096.673     -5.820743       1074558.2    
    488700   297.4864      -47532.504      1527.2783     -38123.788     -28.254973      1077995      
    488800   299.46587     -47588.566      1611.5419     -38043.143     -50.290149      1077577.3    
    488900   304.97725     -47697.599      1609.6217     -38008.081      7.5738203      1074172.7    
    489000   300.27024     -47597.559      1557.195      -38085.173      47.137164      1073734.8    
    489100   295.14476     -47568.376      1590.4741     -38158.502      18.970641      1076493      
    489200   298.23841     -47585.575      1541.5811     -38142.633     -20.978101      1078663.4    
    489300   300.01657     -47543.789      1520.279      -38075.039     -35.294659      1078302      
    489400   304.62217     -47646.651      1582.5568     -37993.605     -4.2260963      1076049.1    
    489500   301.19285     -47630.779      1590.7703     -38060.374      7.4597455      1074640      
    489600   299.54918     -47734.694      1581.099      -38217.507     -0.59231308     1073761.5    
    489700   296.98617     -47643.035      1542.6277     -38232.223      56.156625      1073263.1    
    489800   295.98116     -47614.071      1592.3372     -38180.175      28.725391      1074184.9    
    489900   299.26192     -47603.469      1610.5413     -38064.45       7.3961352      1075430.7    
    490000   299.52403     -47480.447      1564.9299     -37980.096      26.698999      1075681.4    
    490100   299.94942     -47473.047      1582.7718     -37943.583     -4.0847182      1076307.2    
    490200   302.45929     -47547.105      1524.2251     -38009.693      23.658714      1076330.1    
    490300   299.41225     -47601.584      1562.9348     -38106.188     -19.544642      1076518.7    
    490400   301.51405     -47696.19       1567.803      -38140.242     -22.587505      1075349.2    
    490500   299.06391     -47655.602      1544.1099     -38188.261      48.743402      1073021.3    
    490600   298.51003     -47784.395      1592.6738     -38283.163      21.92612       1071695.3    
    490700   297.01045     -47748.586      1521.2255     -38358.532      22.012069      1072575.9    
    490800   296.66179     -47671.464      1500.9614     -38310.911      3.0386067      1074567.4    
    490900   298.20137     -47531.758      1521.7926     -38109.586      10.559756      1076355.7    
    491000   299.48622     -47599.003      1607.3297     -38057.253     -41.578008      1077691.7    
    491100   298.61374     -47502.594      1558.4589     -38032.829      41.196883      1077184.3    
    491200   300.57182     -47582.222      1553.9081     -38065.133     -9.7807468      1076474.4    
    491300   298.98249     -47641.151      1568.773      -38151.303      22.193808      1075797.3    
    491400   295.797       -47647.031      1564.008      -38246.343      4.2779561      1076113.6    
    491500   297.87226     -47677.823      1520.8436     -38265.319      26.576258      1075737      
    491600   300.12831     -47613.103      1547.3609     -38114.311      36.065021      1075416.4    
    491700   299.7171      -47485.995      1526.4313     -38019.027      44.067502      1075967.4    
    491800   299.3623      -47516.79       1563.0492     -38022.604     -15.093896      1078637      
    491900   297.8606      -47440.371      1555.2567     -37993.762      1.5335428      1080180.2    
    492000   304.07836     -47451.427      1593.5067     -37801.838     -0.62123376     1079296.1    
    492100   306.13405     -47552.122      1610.5132     -37831.065     -5.8439368      1077811.4    
    492200   301.34331     -47518.025      1557.6186     -37976.785      30.345755      1078204      
    492300   295.11228     -47442.347      1591.0295     -38032.779     -1.6896358      1078828.3    
    492400   299.32244     -47525.225      1600.0072     -37995.137     -3.6384541      1077613.1    
    492500   300.63319     -47554.616      1619.4151     -37970.393      2.930062       1076373.5    
    492600   300.11144     -47621.788      1576.4952     -38094.308     -26.077966      1076516.4    
    492700   297.72651     -47642.424      1550.4622     -38204.162     -4.2823191      1075736.2    
    492800   296.80673     -47586.422      1529.3515     -38193.639      56.141663      1073867.1    
    492900   298.88284     -47552.18       1552.9495     -38080.796      86.247897      1073594      
    493000   300.78161     -47464.373      1555.9942     -37939.639     -26.682975      1077883.8    
    493100   302.08552     -47425.685      1608.2737     -37814.126     -51.616253      1080544.7    
    493200   301.65027     -47332.762      1559.2512     -37781.757      38.33215       1078585.8    
    493300   301.69129     -47522.734      1547.0457     -37982.848      19.205746      1076207.4    
    493400   302.1872      -47676          1570.7613     -38099.26      -0.24739311     1074377.2    
    493500   294.28483     -47468.913      1534.124      -38138.172      48.247932      1075053.8    
    493600   299.77791     -47530.746      1533.0469     -38055.551     -29.613842      1077251.8    
    493700   300.50839     -47464.483      1583.7309     -37919.251      5.8064318      1077721      
    493800   301.95944     -47475.333      1593.4953     -37881.893      3.0828396      1078264.2    
    493900   298.93842     -47375.026      1551.8404     -37903.279     -2.7871134      1079695.7    
    494000   297.20572     -47407.075      1614.6905     -37918.382     -9.6765728      1080283.1    
    494100   302.36861     -47310.018      1573.2176     -37726.016      19.963732      1080754.4    
    494200   304.61688     -47327.879      1597.8941     -37659.636     -36.590134      1082572.7    
    494300   300.62824     -47318.416      1574.3651     -37779.375     -3.8733905      1082413.6    
    494400   301.41585     -47407.962      1535.317      -37887.103     -38.493874      1080274.3    
    494500   297.66192     -47447.852      1605.0717     -37956.692      62.809307      1076415.6    
    494600   302.42374     -47568.271      1538.7451     -38017.28       85.362776      1074422.5    
    494700   294.0035      -47525.585      1559.5441     -38176.877      7.1792781      1076774.9    
    494800   293.2162      -47552.521      1564.0227     -38220.192     -39.609992      1077688.4    
    494900   306.23153     -47669.327      1585.1401     -37971.06       15.248288      1074710.6    
    495000   305.80526     -47687.838      1614.7817     -37971.223      2.6785637      1074603.4    
    495100   297.04398     -47518.669      1575.7136     -38073.239     -37.60989       1078714.1    
    495200   297.24474     -47488.91       1518.1708     -38095.703     -35.347         1079597.8    
    495300   304.94745     -47596.299      1544.1529     -37973.039      21.67652       1075406.7    
    495400   304.3145      -47628.916      1596.4878     -37970.091      67.821284      1073567.9    
    495500   296.04632     -47523.669      1553.6747     -38126.709      0.55695526     1076453      
    495600   297.41305     -47557.565      1556.8129     -38121.257     -26.786869      1078276.7    
    495700   298.1951      -47454.703      1541.7263     -38012.763      16.138189      1076862.8    
    495800   304.71489     -47551.298      1521.6631     -37956.689      26.04984       1075053.4    
    495900   299.97413     -47633.422      1589.6383     -38096.437      18.156234      1075383.2    
    496000   297.3127      -47592.679      1560.9451     -38154.898     -24.872483      1076855.2    
    496100   299.48239     -47562.163      1534.5192     -38093.325     -7.6795904      1075679.3    
    496200   302.81295     -47594.58       1575.9337     -37996.089      32.211636      1074041.7    
    496300   300.62628     -47564.286      1568.1286     -38031.533      37.44384       1074599.1    
    496400   295.93914     -47610.289      1576.1363     -38193.707     -57.765389      1077585.1    
    496500   297.90155     -47650.143      1550.4        -38207.307     -36.634146      1077850.1    
    496600   297.07781     -47625.79       1595.8586     -38159.319      21.999609      1075054.5    
    496700   305.2463      -47783.655      1572.4149     -38124.216      1.3911435      1073263.7    
    496800   300.59171     -47751.908      1577.1324     -38211.067     -26.040346      1072930      
    496900   298.1802      -47770.244      1549.3462     -38321.079      31.864779      1072282      
    497000   299.02628     -47817.378      1553.1101     -38342.033      27.964281      1072012.2    
    497100   297.29935     -47650.561      1592.5685     -38181.51       24.451012      1072889.6    
    497200   300.52821     -47610.566      1582.1799     -38066.36       12.790103      1074553.7    
    497300   301.72033     -47621.114      1564.5956     -38062.909     -32.339104      1077638.3    
    497400   299.05822     -47515.666      1588.8299     -38003.755     -19.970789      1079789.2    
    497500   301.56872     -47464.548      1602.5201     -37872.435      9.2332075      1079508.5    
    497600   304.45262     -47532.192      1625.2104     -37840.985     -36.726747      1078931.8    
    497700   298.59871     -47518.985      1566.0834     -38041.994      9.5823294      1078246.1    
    497800   299.5254      -47632.798      1576.0888     -38121.252     -31.789952      1076833.5    
    497900   300.07274     -47579.148      1547.4913     -38081.697      39.634378      1074059.6    
    498000   302.215       -47610.091      1556.7948     -38046.581      36.100961      1074578.6    
    498100   296.08125     -47438.09       1541.0691     -38052.81       17.560347      1077589      
    498200   298.71995     -47429.606      1589.7791     -37925.708     -21.433636      1078548.3    
    498300   303.86578     -47431.623      1555.2221     -37825.952      1.1122731      1077539.7    
    498400   300.80219     -47446.949      1594.7551     -37882.909      28.583238      1076635.3    
    498500   295.9011      -47412.722      1552.1869     -38021.097     -11.764496      1077154      
    498600   300.03279     -47538.461      1553.4738     -38036.086     -19.689115      1076632      
    498700   304.26403     -47623.958      1544.0302     -38018.927     -12.443838      1074743.5    
    498800   301.03167     -47611.108      1577.1422     -38058.601      51.987926      1073308.9    
    498900   297.82378     -47611.932      1502.5828     -38218.973     -9.8907124      1074230.2    
    499000   298.30658     -47700.7        1544.7361     -38252.796     -52.475398      1075234.5    
    499100   298.76062     -47652.139      1572.8692     -38164.073      1.7454978      1073730.1    
    499200   301.77272     -47695.777      1577.1704     -38123.609      73.691572      1071970.6    
    499300   299.93441     -47725.33       1590.7657     -38188.27      -1.5748004      1073830      
    499400   296.59596     -47636.834      1548.7003     -38230.287     -49.091936      1076433.6    
    499500   298.31357     -47621.889      1631.2313     -38087.305      13.070959      1075817.9    
    499600   301.97294     -47631.75       1660.4832     -37970.965     -0.74000979     1075365.7    
    499700   303.45576     -47571.528      1534.3803     -37997.561     -3.8526295      1076464.6    
    499800   298.18424     -47551.466      1559.375      -38092.165     -45.279012      1077944.3    
    499900   298.43142     -47653.419      1596.4392     -38150.505     -43.520551      1077007.5    
    500000   298.85044     -47661.594      1581.1638     -38162.854      80.967069      1074003.3    
Loop time of 1570.82 on 8 procs for 500000 steps with 8889 atoms

Performance: 550.030 ns/day, 0.044 hours/ns, 318.304 timesteps/s, 2.829 Matom-step/s
99.9% CPU use with 8 MPI tasks x 1 OpenMP threads

MPI task timing breakdown:
Section |  min time  |  avg time  |  max time  |%varavg| %total
---------------------------------------------------------------
Pair    | 363.42     | 372.6      | 386.95     |  41.9 | 23.72
Bond    | 9.3323     | 9.988      | 10.643     |  11.4 |  0.64
Kspace  | 183.47     | 198.4      | 208.34     |  59.9 | 12.63
Neigh   | 851.07     | 851.7      | 852.13     |   1.3 | 54.22
Comm    | 77.869     | 78.33      | 78.986     |   4.2 |  4.99
Output  | 0.17381    | 0.18416    | 0.22423    |   3.6 |  0.01
Modify  | 49.345     | 51.177     | 51.816     |  10.0 |  3.26
Other   |            | 8.449      |            |       |  0.54

Nlocal:        1111.12 ave        1134 max        1099 min
Histogram: 2 1 1 0 3 0 0 0 0 1
Nghost:        2488.88 ave        2510 max        2476 min
Histogram: 3 1 0 0 2 0 0 0 1 1
Neighs:        34800.9 ave       35657 max       34158 min
Histogram: 1 1 1 1 0 3 0 0 0 1

Total # of neighbors = 278407
Ave neighs/atom = 31.320396
Ave special neighs/atom = 0.67499156
Neighbor list builds = 500000
Dangerous builds = 500000

write_data end-cont3.data
System init for write_data ...
PPPM initialization ...
  using 12-bit tables for long-range coulomb (src/kspace.cpp:342)
  G vector (1/distance) = 0.14974436
  grid = 18 18 18
  stencil order = 4
  estimated absolute RMS force accuracy = 0.0027470603
  estimated relative force accuracy = 8.2726906e-06
  using double precision KISS FFT
  3d grid and FFT values/proc = 2744 972
Generated 0 of 6 mixed pair_coeff terms from geometric mixing rule
Total wall time: 0:26:10
